C H O
1.0
  6.695900284728   0.000000000000   0.000000000000
  0.000000000000  17.081501040377   0.000000000000
  0.000000000000   0.000000000000   9.862009223825
C H O
 64  16  30
Selective dynamics
Direct
  0.500000000000   0.208333335750   0.124999992500  T T T
  0.500000000000   0.708333335750   0.124999992500  T T T
  0.500000000000   0.208333335750   0.624999992500  T T T
  0.500000000000   0.708333335750   0.624999992500  T T T
  0.500000000000   0.458333335750   0.124999992500  T T T
  0.500000000000   0.958333335750   0.124999992500  T T T
  0.500000000000   0.458333335750   0.624999992500  T T T
  0.500000000000   0.958333335750   0.624999992500  T T T
  0.500000000000   0.125000000000   0.125000000000  T T T
  0.500000000000   0.625000000000   0.125000000000  T T T
  0.500000000000   0.125000000000   0.625000000000  T T T
  0.500000000000   0.625000000000   0.625000000000  T T T
  0.500000000000   0.375000000000   0.125000000000  T T T
  0.500000000000   0.875000000000   0.125000000000  T T T
  0.500000000000   0.375000000000   0.625000000000  T T T
  0.500000000000   0.875000000000   0.625000000000  T T T
  0.500000000000   0.083333335750   0.249999992500  T T T
  0.500000000000   0.583333335750   0.249999992500  T T T
  0.500000000000   0.083333335750   0.749999992500  T T T
  0.500000000000   0.583333335750   0.749999992500  T T T
  0.500000000000   0.333333335750   0.249999992500  T T T
  0.500000000000   0.833333335750   0.249999992500  T T T
  0.500000000000   0.333333335750   0.749999992500  T T T
  0.500000000000   0.833333335750   0.749999992500  T T T
  0.500000000000   0.000000000000   0.250000000000  T T T
  0.500000000000   0.500000000000   0.250000000000  T T T
  0.500000000000   0.000000000000   0.750000000000  T T T
  0.500000000000   0.500000000000   0.750000000000  T T T
  0.500000000000   0.250000000000   0.250000000000  T T T
  0.500000000000   0.750000000000   0.250000000000  T T T
  0.500000000000   0.250000000000   0.750000000000  T T T
  0.500000000000   0.750000000000   0.750000000000  T T T
  0.500000000000   0.208333335750   0.374999992500  T T T
  0.500000000000   0.708333335750   0.374999992500  T T T
  0.500000000000   0.208333335750   0.874999992500  T T T
  0.500000000000   0.708333335750   0.874999992500  T T T
  0.500000000000   0.458333335750   0.374999992500  T T T
  0.500000000000   0.958333335750   0.374999992500  T T T
  0.500000000000   0.458333335750   0.874999992500  T T T
  0.500000000000   0.958333335750   0.874999992500  T T T
  0.500000000000   0.125000000000   0.375000000000  T T T
  0.500000000000   0.625000000000   0.375000000000  T T T
  0.500000000000   0.125000000000   0.875000000000  T T T
  0.500000000000   0.625000000000   0.875000000000  T T T
  0.500000000000   0.375000000000   0.375000000000  T T T
  0.500000000000   0.875000000000   0.375000000000  T T T
  0.500000000000   0.375000000000   0.875000000000  T T T
  0.500000000000   0.875000000000   0.875000000000  T T T
  0.500000000000   0.083333335750   0.499999992500  T T T
  0.500000000000   0.583333335750   0.499999992500  T T T
  0.500000000000   0.083333335750   0.999999992500  T T T
  0.500000000000   0.583333335750   0.999999992500  T T T
  0.500000000000   0.333333335750   0.499999992500  T T T
  0.500000000000   0.833333335750   0.499999992500  T T T
  0.500000000000   0.333333335750   0.999999992500  T T T
  0.500000000000   0.833333335750   0.999999992500  T T T
  0.500000000000   0.000000000000   0.500000000000  T T T
  0.500000000000   0.500000000000   0.500000000000  T T T
  0.500000000000   0.000000000000   1.000000000000  T T T
  0.500000000000   0.500000000000   1.000000000000  T T T
  0.500000000000   0.250000000000   0.500000000000  T T T
  0.500000000000   0.750000000000   0.500000000000  T T T
  0.500000000000   0.250000000000   1.000000000000  T T T
  0.500000000000   0.750000000000   1.000000000000  T T T
  0.799212778678   0.337297961023   0.173115930909  T T T
  0.799212778678   0.837297961023   0.173115930909  T T T
  0.823086417479   0.196016007740   0.501638997024  T T T
  0.823086417479   0.696016007740   0.501638997024  T T T
  0.779697503827   0.052409063722   0.568857535706  T T T
  0.779697503827   0.552409063722   0.568857535706  T T T
  0.803210074387   0.348662783975   0.655166409935  T T T
  0.803210074387   0.848662783975   0.655166409935  T T T
  0.826086536660   0.232193302948   1.070151613932  T T T
  0.826086536660   0.732193302948   1.070151613932  T T T
  0.859467358336   0.100246931211   1.009785151587  T T T
  0.859467358336   0.600246931211   1.009785151587  T T T
  0.846450259684   0.519722470532   0.722704683879  T T T
  0.803155571635   0.455350959685   0.281697516045  T T T
  0.774720143012   0.977784486370   0.746910406858  T T T
  0.810725783133   0.998646103359   0.254346777834  T T T
  0.298273783269   0.358044153257   0.435679254150  T T T
  0.298273783269   0.858044153257   0.435679254150  T T T
  0.316169568263   0.416916753910   0.623935898912  T T T
  0.316169568263   0.916916753910   0.623935898912  T T T
  0.322618041128   0.349364642213   0.925703936861  T T T
  0.322618041128   0.849364642213   0.925703936861  T T T
  0.334683242589   0.166294829165   0.871555877045  T T T
  0.334683242589   0.666294829165   0.871555877045  T T T
  0.372086256947   0.103911992094   0.688998523224  T T T
  0.372086256947   0.603911992094   0.688998523224  T T T
  0.302130904937   0.165655007331   0.367472032947  T T T
  0.302130904937   0.665655007331   0.367472032947  T T T
  0.682875230957   0.335449684227   0.248519968252  T T T
  0.682875230957   0.835449684227   0.248519968252  T T T
  0.721073386226   0.238393012309   0.487562136889  T T T
  0.721073386226   0.738393012309   0.487562136889  T T T
  0.680566006784   0.084991662528   0.511219555315  T T T
  0.680566006784   0.584991662528   0.511219555315  T T T
  0.706826422597   0.325275942692   0.742792871550  T T T
  0.706826422597   0.825275942692   0.742792871550  T T T
  0.731222780973   0.250288425524   0.997922626781  T T T
  0.731222780973   0.750288425524   0.997922626781  T T T
  0.702654998530   0.100246931211   1.009785151587  T T T
  0.702654998530   0.600246931211   1.009785151587  T T T
  0.292710499039   0.418417101829   0.131327861267  T T T
  0.292710499039   0.918417101829   0.131327861267  T T T
  0.724970605700   0.487907274812   0.720219617522  T T T
  0.700848953289   0.493127830199   0.280032965682  T T T
  0.666388551286   1.005188977337   0.739212455783  T T T
  0.653913423326   0.998646103359   0.254346777834  T T T
