C H N O S                               
   1.00000000000000     
    20.0000000000000000    0.0000000000000000    0.0000000000000000
     0.0000000000000000   21.3509999999999991    0.0000000000000000
     0.0000000000000000    0.0000000000000000   19.7231999999999985
   C 
   160
Selective dynamics
Direct
  0.0248058540152911  0.0162071409535685  0.0320044345205872   T   T   T
  0.0251387715627658  0.0175077101911114  0.1597074392111395   T   T   T
  0.0240346080205427  0.0171797229426076  0.2840892247368814   T   T   T
  0.0261134765962154  0.0168629563401907  0.4084175428236776   T   T   T
  0.0259805044447674  0.0157431250702516  0.5327536753872479   T   T   T
  0.0246625875794209  0.0169437609490402  0.6571239858000908   T   T   T
  0.0238078822648760  0.0195981010766957  0.7816021444941015   T   T   T
  0.0214636938132813  0.0162320572177563  0.9073850145923146   T   T   T
  0.0309021577819237  0.0808378241448509  0.0323609526924571   T   T   T
  0.0317527527966206  0.0810723000218445  0.1592244608715632   T   T   T
  0.0295956676977767  0.0824175381639520  0.2825995989366277   T   T   T
  0.0275401344486639  0.0827963578130451  0.4082699862567907   T   T   T
  0.0243363410313933  0.0805730825742543  0.5323572446434071   T   T   T
  0.0214358580509497  0.0819550948537469  0.6583449846239233   T   T   T
  0.0233245091672742  0.0825254659272758  0.7829941004787386   T   T   T
  0.0294745598048394  0.0820775803968559  0.9063753905027241   T   T   T
  0.0360151297647207  0.1159965536297491  0.0954294787133705   T   T   T
  0.0333665069583304  0.1175733282409226  0.2201346314125558   T   T   T
  0.0307040559695650  0.1166101211529806  0.3452031342425528   T   T   T
  0.0268125839813109  0.1170415632407469  0.4698001785342498   T   T   T
  0.0265474850858070  0.1144143292644557  0.5943550633989929   T   T   T
  0.0221498327482976  0.1179223911130052  0.7202008708730219   T   T   T
  0.0251015148326204  0.1176155125485536  0.8447104203647200   T   T   T
  0.0328867467306964  0.1152650905027812  0.9687682881754327   T   T   T
  0.0430752318950383  0.1823918113059904  0.0951650506661679   T   T   T
  0.0440512136421418  0.1802372757528943  0.2197379922743323   T   T   T
  0.0371098773488825  0.1820301831831230  0.3441209134410030   T   T   T
  0.0322765798291442  0.1835647167014614  0.4707022644350687   T   T   T
  0.0288363864595382  0.1813861025937129  0.5939072093738602   T   T   T
  0.0252886911394299  0.1837195763533401  0.7190844178862292   T   T   T
  0.0291092158313973  0.1830122695668237  0.8455152784680635   T   T   T
  0.0373593032423543  0.1811174558688577  0.9681628662750441   T   T   T
  0.0421553486219537  0.2133556308766273  0.0316584166873071   T   T   T
  0.0477204988082960  0.2108728973666771  0.1581168047763413   T   T   T
  0.0432845634689869  0.2142470156793408  0.2814178988912630   T   T   T
  0.0407328143934365  0.2128460897856499  0.4086262729047547   T   T   T
  0.0341156215435277  0.2145726867276636  0.5318832079020765   T   T   T
  0.0292539205979807  0.2125590862671984  0.6557345952559217   T   T   T
  0.0310381927701613  0.2138113532598354  0.7835482090613866   T   T   T
  0.0317995189194775  0.2136541244882864  0.9084463485560264   T   T   T
  0.0385981525760783  0.2830454114548573  0.0301408493219029   T   T   T
  0.0469822991246502  0.2843148265291902  0.1589265563436939   T   T   T
  0.0465827087013579  0.2841085391610960  0.2841918900255749   T   T   T
  0.0422265879795916  0.2849722733325066  0.4079228608189354   T   T   T
  0.0358772885950884  0.2835405057161680  0.5313603598243475   T   T   T
  0.0337001051622323  0.2832090140338295  0.6549801799432942   T   T   T
  0.0378459786914291  0.2819832112874892  0.7811586318159200   T   T   T
  0.0382747381326780  0.2844253023425196  0.9070772049198652   T   T   T
  0.0421348173153291  0.3126556478524165  0.0942128787525931   T   T   T
  0.0472919758634518  0.3150852682745224  0.2211957132115998   T   T   T
  0.0485849686298394  0.3168180955601372  0.3452487783035849   T   T   T
  0.0413288756744166  0.3172461438291094  0.4701788408306271   T   T   T
  0.0376022276405052  0.3177470005401801  0.5931485906636880   T   T   T
  0.0359689053789367  0.3127506495594474  0.7186130216481672   T   T   T
  0.0359022214997609  0.3146775309323360  0.8442558975660077   T   T   T
  0.0368756879970178  0.3159173493531142  0.9699667864265251   T   T   T
  0.0407027113176852  0.3804278492930777  0.0950139353756327   T   T   T
  0.0463240005388883  0.3804171773336051  0.2217693052236598   T   T   T
  0.0457249980136467  0.3828477627661613  0.3470705753472956   T   T   T
  0.0405182662193013  0.3833071190263695  0.4697004786385577   T   T   T
  0.0407251925383676  0.3819477735391672  0.5942108230624044   T   T   T
  0.0407907479639604  0.3807664282139527  0.7212825824216722   T   T   T
  0.0396122677150430  0.3826300789294308  0.8443285723358116   T   T   T
  0.0370377983355539  0.3822813608555933  0.9701902785951830   T   T   T
  0.0376152327622918  0.4161930573356187  0.0322308706839181   T   T   T
  0.0444212487081614  0.4158164432921581  0.1582454283999724   T   T   T
  0.0444608978391656  0.4171559505903204  0.2825090706632665   T   T   T
  0.0430614566296157  0.4171586253055750  0.4067674264822898   T   T   T
  0.0419975961756549  0.4168809932338107  0.5334039213930879   T   T   T
  0.0442700877264670  0.4162805995611976  0.6568574191767809   T   T   T
  0.0401245333590765  0.4154853983044617  0.7820406997714997   T   T   T
  0.0386051286968652  0.4169535871054322  0.9085191648913522   T   T   T
  0.0415981633212823  0.4827773912927427  0.0321012199162851   T   T   T
  0.0393109200345876  0.4811034612021672  0.1560434620635505   T   T   T
  0.0379833989884943  0.4821332199939903  0.2805695034262570   T   T   T
  0.0377112966484532  0.4834480256188272  0.4078297381602454   T   T   T
  0.0421972609920829  0.4818519245063158  0.5325225515627707   T   T   T
  0.0424722629872392  0.4820363314298106  0.6542742839005911   T   T   T
  0.0428819104955807  0.4814495817735391  0.7804379497239324   T   T   T
  0.0404238254456359  0.4829839078029536  0.9078295039258322   T   T   T
  0.0413022780441707  0.5145158317162881  0.0948209209709390   T   T   T
  0.0342905733410390  0.5153858346236220  0.2174514722329448   T   T   T
  0.0318746167291835  0.5164805713303906  0.3451793099901508   T   T   T
  0.0391828541614672  0.5160270978688644  0.4705572805742975   T   T   T
  0.0406208758350033  0.5166666666659978  0.5937500425700009   F   F   F
  0.0405556405961107  0.5152534137850040  0.7178983930292446   T   T   T
  0.0413304795373932  0.5158889247628551  0.8441896908964139   T   T   T
  0.0423806653709633  0.5160824894642744  0.9726306196340957   T   T   T
  0.0383446474765705  0.5812257574163269  0.0941150977193743   T   T   T
  0.0294089926536003  0.5815299061388899  0.2203319706902249   T   T   T
  0.0291983748740776  0.5798493027477392  0.3450809988161936   T   T   T
  0.0324820915344830  0.5818159447638962  0.4705102256538893   T   T   T
  0.0371330295628880  0.5823359759213744  0.5965665966569347   T   T   T
  0.0374941166935372  0.5806944934146259  0.7203077426382976   T   T   T
  0.0352802584237182  0.5801545222635269  0.8447179764513706   T   T   T
  0.0387428122407627  0.5824460507763050  0.9707837954734799   T   T   T
  0.0357914622674897  0.6159250217985530  0.0311118160480106   T   T   T
  0.0306628934565367  0.6154606633023789  0.1579907591258092   T   T   T
  0.0233152169571085  0.6151070129544749  0.2841801731777451   T   T   T
  0.0294367613262878  0.6143594846715885  0.4070079139699772   T   T   T
  0.0336977314382167  0.6157649370258653  0.5319244447817795   T   T   T
  0.0347673155359232  0.6190416102415384  0.6594238334471285   T   T   T
  0.0334919603061081  0.6163641808935481  0.7843625814185060   T   T   T
  0.0349768244779156  0.6146652700626163  0.9073630008152378   T   T   T
  0.0298988459119798  0.6812304403806877  0.0328449685415819   T   T   T
  0.0239952273905502  0.6822350142581755  0.1569445566924230   T   T   T
  0.0216291035673564  0.6809443720351354  0.2821249833313857   T   T   T
  0.0267202819550150  0.6784570877971277  0.4076161347881637   T   T   T
  0.0286369608608936  0.6819266978743954  0.5317660433499967   T   T   T
  0.0273707631387481  0.6838005903909234  0.6567554631865633   T   T   T
  0.0260368716413311  0.6827332962862798  0.7831734446202105   T   T   T
  0.0304250564675641  0.6812618046202914  0.9071133769002842   T   T   T
  0.0199065347389720  0.7126588180484816  0.0940105440378716   T   T   T
  0.0200486386276637  0.7151330669584510  0.2207805668037750   T   T   T
  0.0215107501502771  0.7113773926969102  0.3454326445174871   T   T   T
  0.0232899266652282  0.7126020347379765  0.4692445808117967   T   T   T
  0.0243282371136289  0.7160157668634568  0.5932384440410630   T   T   T
  0.0277726990902565  0.7157982997421826  0.7206909620196811   T   T   T
  0.0282457153046423  0.7134679826691439  0.8452997767014665   T   T   T
  0.0293256332104903  0.7136226564695392  0.9700466591770933   T   T   T
  0.0192704811319402  0.7840635740078099  0.0945891767909046   T   T   T
  0.0161752717990993  0.7858261943391440  0.2198842709609821   T   T   T
  0.0190231424873772  0.7825001157937947  0.3450881672530244   T   T   T
  0.0216831323194882  0.7827993448170361  0.4696478523260481   T   T   T
  0.0238780991043797  0.7843147503193535  0.5947038645766298   T   T   T
  0.0225187631810329  0.7864183045657072  0.7203320232105597   T   T   T
  0.0242883197242634  0.7858736985573174  0.8458084743810019   T   T   T
  0.0214054637364711  0.7843187285388069  0.9700100193271624   T   T   T
  0.0206982578033958  0.8147243014512071  0.0332643335732712   T   T   T
  0.0189567252568708  0.8173457617174975  0.1574192328283388   T   T   T
  0.0185826546433390  0.8147160401471467  0.2830702914174523   T   T   T
  0.0222143163905315  0.8148589094418739  0.4087822440385125   T   T   T
  0.0226124878218528  0.8147006389536031  0.5323282900674116   T   T   T
  0.0217713121670187  0.8169519746778207  0.6562342827858387   T   T   T
  0.0237128418060806  0.8167365923176320  0.7830176098354258   T   T   T
  0.0207365546597984  0.8154891032468967  0.9077385359298376   T   T   T
  0.0200452014693795  0.8818630859217933  0.0323743083560117   T   T   T
  0.0196711949539790  0.8826518518374868  0.1569077826409213   T   T   T
  0.0190371037885129  0.8824050507191572  0.2824851268436461   T   T   T
  0.0198851338389119  0.8821865207313095  0.4067658113381043   T   T   T
  0.0201756524387307  0.8833476290714728  0.5319687301260885   T   T   T
  0.0224726124251617  0.8834131402114167  0.6570293350404768   T   T   T
  0.0223826156783673  0.8845305364267730  0.7815924367000733   T   T   T
  0.0217018828022901  0.8820423235140566  0.9072774077316481   T   T   T
  0.0174521894698785  0.9167922770456371  0.0949440622938695   T   T   T
  0.0183350449333233  0.9172163048472584  0.2209241513749731   T   T   T
  0.0219082391682051  0.9151064271043268  0.3453064269631980   T   T   T
  0.0207339387019374  0.9166150617008455  0.4708171337377536   T   T   T
  0.0203751860306127  0.9168163584690063  0.5940156732072026   T   T   T
  0.0201015042259201  0.9190269183731914  0.7175859060782699   T   T   T
  0.0250091422230270  0.9182041123904270  0.8424862554416279   T   T   T
  0.0217172169931246  0.9168070890561424  0.9694166265705846   T   T   T
  0.0229948259727948  0.9822041875768335  0.0950713095850091   T   T   T
  0.0226877850590199  0.9832263171055402  0.2205274316440011   T   T   T
  0.0248283175738848  0.9828154442491623  0.3446215718380472   T   T   T
  0.0216246500881567  0.9821069971822993  0.4699867532501827   T   T   T
  0.0206021490689707  0.9829628092265992  0.5946206192638499   T   T   T
  0.0227132564204595  0.9844956466294406  0.7197142992672170   T   T   T
  0.0253820114325833  0.9833763895231016  0.8436361389985407   T   T   T
  0.0204139375244168  0.9821176255926432  0.9698381269734284   T   T   T
 
  0.00000000E+00  0.00000000E+00  0.00000000E+00
  0.00000000E+00  0.00000000E+00  0.00000000E+00
  0.00000000E+00  0.00000000E+00  0.00000000E+00
  0.00000000E+00  0.00000000E+00  0.00000000E+00
  0.00000000E+00  0.00000000E+00  0.00000000E+00
  0.00000000E+00  0.00000000E+00  0.00000000E+00
  0.00000000E+00  0.00000000E+00  0.00000000E+00
  0.00000000E+00  0.00000000E+00  0.00000000E+00
  0.00000000E+00  0.00000000E+00  0.00000000E+00
  0.00000000E+00  0.00000000E+00  0.00000000E+00
  0.00000000E+00  0.00000000E+00  0.00000000E+00
  0.00000000E+00  0.00000000E+00  0.00000000E+00
  0.00000000E+00  0.00000000E+00  0.00000000E+00
  0.00000000E+00  0.00000000E+00  0.00000000E+00
  0.00000000E+00  0.00000000E+00  0.00000000E+00
  0.00000000E+00  0.00000000E+00  0.00000000E+00
  0.00000000E+00  0.00000000E+00  0.00000000E+00
  0.00000000E+00  0.00000000E+00  0.00000000E+00
  0.00000000E+00  0.00000000E+00  0.00000000E+00
  0.00000000E+00  0.00000000E+00  0.00000000E+00
  0.00000000E+00  0.00000000E+00  0.00000000E+00
  0.00000000E+00  0.00000000E+00  0.00000000E+00
  0.00000000E+00  0.00000000E+00  0.00000000E+00
  0.00000000E+00  0.00000000E+00  0.00000000E+00
  0.00000000E+00  0.00000000E+00  0.00000000E+00
  0.00000000E+00  0.00000000E+00  0.00000000E+00
  0.00000000E+00  0.00000000E+00  0.00000000E+00
  0.00000000E+00  0.00000000E+00  0.00000000E+00
  0.00000000E+00  0.00000000E+00  0.00000000E+00
  0.00000000E+00  0.00000000E+00  0.00000000E+00
  0.00000000E+00  0.00000000E+00  0.00000000E+00
  0.00000000E+00  0.00000000E+00  0.00000000E+00
  0.00000000E+00  0.00000000E+00  0.00000000E+00
  0.00000000E+00  0.00000000E+00  0.00000000E+00
  0.00000000E+00  0.00000000E+00  0.00000000E+00
  0.00000000E+00  0.00000000E+00  0.00000000E+00
  0.00000000E+00  0.00000000E+00  0.00000000E+00
  0.00000000E+00  0.00000000E+00  0.00000000E+00
  0.00000000E+00  0.00000000E+00  0.00000000E+00
  0.00000000E+00  0.00000000E+00  0.00000000E+00
  0.00000000E+00  0.00000000E+00  0.00000000E+00
  0.00000000E+00  0.00000000E+00  0.00000000E+00
  0.00000000E+00  0.00000000E+00  0.00000000E+00
  0.00000000E+00  0.00000000E+00  0.00000000E+00
  0.00000000E+00  0.00000000E+00  0.00000000E+00
  0.00000000E+00  0.00000000E+00  0.00000000E+00
  0.00000000E+00  0.00000000E+00  0.00000000E+00
  0.00000000E+00  0.00000000E+00  0.00000000E+00
  0.00000000E+00  0.00000000E+00  0.00000000E+00
  0.00000000E+00  0.00000000E+00  0.00000000E+00
  0.00000000E+00  0.00000000E+00  0.00000000E+00
  0.00000000E+00  0.00000000E+00  0.00000000E+00
  0.00000000E+00  0.00000000E+00  0.00000000E+00
  0.00000000E+00  0.00000000E+00  0.00000000E+00
  0.00000000E+00  0.00000000E+00  0.00000000E+00
  0.00000000E+00  0.00000000E+00  0.00000000E+00
  0.00000000E+00  0.00000000E+00  0.00000000E+00
  0.00000000E+00  0.00000000E+00  0.00000000E+00
  0.00000000E+00  0.00000000E+00  0.00000000E+00
  0.00000000E+00  0.00000000E+00  0.00000000E+00
  0.00000000E+00  0.00000000E+00  0.00000000E+00
  0.00000000E+00  0.00000000E+00  0.00000000E+00
  0.00000000E+00  0.00000000E+00  0.00000000E+00
  0.00000000E+00  0.00000000E+00  0.00000000E+00
  0.00000000E+00  0.00000000E+00  0.00000000E+00
  0.00000000E+00  0.00000000E+00  0.00000000E+00
  0.00000000E+00  0.00000000E+00  0.00000000E+00
  0.00000000E+00  0.00000000E+00  0.00000000E+00
  0.00000000E+00  0.00000000E+00  0.00000000E+00
  0.00000000E+00  0.00000000E+00  0.00000000E+00
  0.00000000E+00  0.00000000E+00  0.00000000E+00
  0.00000000E+00  0.00000000E+00  0.00000000E+00
  0.00000000E+00  0.00000000E+00  0.00000000E+00
  0.00000000E+00  0.00000000E+00  0.00000000E+00
  0.00000000E+00  0.00000000E+00  0.00000000E+00
  0.00000000E+00  0.00000000E+00  0.00000000E+00
  0.00000000E+00  0.00000000E+00  0.00000000E+00
  0.00000000E+00  0.00000000E+00  0.00000000E+00
  0.00000000E+00  0.00000000E+00  0.00000000E+00
  0.00000000E+00  0.00000000E+00  0.00000000E+00
  0.00000000E+00  0.00000000E+00  0.00000000E+00
  0.00000000E+00  0.00000000E+00  0.00000000E+00
  0.00000000E+00  0.00000000E+00  0.00000000E+00
  0.00000000E+00  0.00000000E+00  0.00000000E+00
  0.00000000E+00  0.00000000E+00  0.00000000E+00
  0.00000000E+00  0.00000000E+00  0.00000000E+00
  0.00000000E+00  0.00000000E+00  0.00000000E+00
  0.00000000E+00  0.00000000E+00  0.00000000E+00
  0.00000000E+00  0.00000000E+00  0.00000000E+00
  0.00000000E+00  0.00000000E+00  0.00000000E+00
  0.00000000E+00  0.00000000E+00  0.00000000E+00
  0.00000000E+00  0.00000000E+00  0.00000000E+00
  0.00000000E+00  0.00000000E+00  0.00000000E+00
  0.00000000E+00  0.00000000E+00  0.00000000E+00
  0.00000000E+00  0.00000000E+00  0.00000000E+00
  0.00000000E+00  0.00000000E+00  0.00000000E+00
  0.00000000E+00  0.00000000E+00  0.00000000E+00
  0.00000000E+00  0.00000000E+00  0.00000000E+00
  0.00000000E+00  0.00000000E+00  0.00000000E+00
  0.00000000E+00  0.00000000E+00  0.00000000E+00
  0.00000000E+00  0.00000000E+00  0.00000000E+00
  0.00000000E+00  0.00000000E+00  0.00000000E+00
  0.00000000E+00  0.00000000E+00  0.00000000E+00
  0.00000000E+00  0.00000000E+00  0.00000000E+00
  0.00000000E+00  0.00000000E+00  0.00000000E+00
  0.00000000E+00  0.00000000E+00  0.00000000E+00
  0.00000000E+00  0.00000000E+00  0.00000000E+00
  0.00000000E+00  0.00000000E+00  0.00000000E+00
  0.00000000E+00  0.00000000E+00  0.00000000E+00
  0.00000000E+00  0.00000000E+00  0.00000000E+00
  0.00000000E+00  0.00000000E+00  0.00000000E+00
  0.00000000E+00  0.00000000E+00  0.00000000E+00
  0.00000000E+00  0.00000000E+00  0.00000000E+00
  0.00000000E+00  0.00000000E+00  0.00000000E+00
  0.00000000E+00  0.00000000E+00  0.00000000E+00
  0.00000000E+00  0.00000000E+00  0.00000000E+00
  0.00000000E+00  0.00000000E+00  0.00000000E+00
  0.00000000E+00  0.00000000E+00  0.00000000E+00
  0.00000000E+00  0.00000000E+00  0.00000000E+00
  0.00000000E+00  0.00000000E+00  0.00000000E+00
  0.00000000E+00  0.00000000E+00  0.00000000E+00
  0.00000000E+00  0.00000000E+00  0.00000000E+00
  0.00000000E+00  0.00000000E+00  0.00000000E+00
  0.00000000E+00  0.00000000E+00  0.00000000E+00
  0.00000000E+00  0.00000000E+00  0.00000000E+00
  0.00000000E+00  0.00000000E+00  0.00000000E+00
  0.00000000E+00  0.00000000E+00  0.00000000E+00
  0.00000000E+00  0.00000000E+00  0.00000000E+00
  0.00000000E+00  0.00000000E+00  0.00000000E+00
  0.00000000E+00  0.00000000E+00  0.00000000E+00
  0.00000000E+00  0.00000000E+00  0.00000000E+00
  0.00000000E+00  0.00000000E+00  0.00000000E+00
  0.00000000E+00  0.00000000E+00  0.00000000E+00
  0.00000000E+00  0.00000000E+00  0.00000000E+00
  0.00000000E+00  0.00000000E+00  0.00000000E+00
  0.00000000E+00  0.00000000E+00  0.00000000E+00
  0.00000000E+00  0.00000000E+00  0.00000000E+00
  0.00000000E+00  0.00000000E+00  0.00000000E+00
  0.00000000E+00  0.00000000E+00  0.00000000E+00
  0.00000000E+00  0.00000000E+00  0.00000000E+00
  0.00000000E+00  0.00000000E+00  0.00000000E+00
  0.00000000E+00  0.00000000E+00  0.00000000E+00
  0.00000000E+00  0.00000000E+00  0.00000000E+00
  0.00000000E+00  0.00000000E+00  0.00000000E+00
  0.00000000E+00  0.00000000E+00  0.00000000E+00
  0.00000000E+00  0.00000000E+00  0.00000000E+00
  0.00000000E+00  0.00000000E+00  0.00000000E+00
  0.00000000E+00  0.00000000E+00  0.00000000E+00
  0.00000000E+00  0.00000000E+00  0.00000000E+00
  0.00000000E+00  0.00000000E+00  0.00000000E+00
  0.00000000E+00  0.00000000E+00  0.00000000E+00
  0.00000000E+00  0.00000000E+00  0.00000000E+00
  0.00000000E+00  0.00000000E+00  0.00000000E+00
  0.00000000E+00  0.00000000E+00  0.00000000E+00
  0.00000000E+00  0.00000000E+00  0.00000000E+00
  0.00000000E+00  0.00000000E+00  0.00000000E+00
  0.00000000E+00  0.00000000E+00  0.00000000E+00
  0.00000000E+00  0.00000000E+00  0.00000000E+00
  0.00000000E+00  0.00000000E+00  0.00000000E+00
  0.00000000E+00  0.00000000E+00  0.00000000E+00
