C H N O S                               
   1.00000000000000     
    17.0814999999999984    0.0000000000000000    0.0000000000000000
     0.0000000000000000   20.0000000000000000    0.0000000000000000
     0.0000000000000000    0.0000000000000000   19.7743000000000002
   C    H    N    O    S 
   131    71     1    98     1
Selective dynamics
Direct
  0.1037884285014020  0.1322625775398040  0.0322451538438127   T   T   T
  0.0995391850955292  0.1319535200136099  0.2805336765726186   T   T   T
  0.1018571735447020  0.1210798918205630  0.5299774815694841   T   T   T
  0.1076656555330885  0.1291377540586856  0.7824641931281228   T   T   T
  0.5985690492048878  0.1439299881149868  0.0385288419131207   T   T   T
  0.6042815035984956  0.1342184620737323  0.2800425876590658   T   T   T
  0.5967525276618987  0.1218023858025307  0.5389938242989597   T   T   T
  0.6058154942402740  0.1298075924095047  0.7892265489811912   T   T   T
  0.1072729415220676  0.1095983525584883  0.1547361326259262   T   T   T
  0.0968657440393229  0.0950616880488473  0.4147939934469951   T   T   T
  0.0970946607107654  0.0941507744476692  0.6566599697491510   T   T   T
  0.1053499094385950  0.1042355426369670  0.9034686454730568   T   T   T
  0.6066017762931885  0.1035757938341446  0.1586789293464571   T   T   T
  0.6082379978806859  0.0965848585342408  0.4059894891846181   T   T   T
  0.6066137822749516  0.1075161989922489  0.6725328652886114   T   T   T
  0.5992580937012547  0.0959218525831323  0.9116321253566574   T   T   T
  0.3472191048124836  0.1303524909753419  0.0311336532066276   T   T   T
  0.3451215924169905  0.1131981211099556  0.2834833890102690   T   T   T
  0.3501717548500559  0.1286308921166276  0.5334567867856332   T   T   T
  0.3538215988247150  0.1226084180806460  0.7870659408345198   T   T   T
  0.8601052219098800  0.1225860966577394  0.0303945129790684   T   T   T
  0.8538895064220157  0.1230233504348072  0.2818538442483275   T   T   T
  0.8563903794889323  0.1218721160587291  0.5347617281113562   T   T   T
  0.8487525537997502  0.1433689141185754  0.7799905647341203   T   T   T
  0.3488437630269334  0.0990569419173371  0.1540847371475211   T   T   T
  0.3503670544825715  0.1091372403003711  0.4051130687212143   T   T   T
  0.3661357454428211  0.0947257175507982  0.6509517097846284   T   T   T
  0.3555746361186661  0.1075024257357793  0.9049423669267500   T   T   T
  0.8549123702872095  0.1128064593753687  0.1576375569977118   T   T   T
  0.8512869813396503  0.0985394324223279  0.3958075942907767   T   T   T
  0.8530487471123828  0.0964953127747410  0.6552626385934898   T   T   T
  0.8551762474551532  0.1023150288669693  0.9079656696812356   T   T   T
  0.1926059016123617  0.1044214980307805  0.0314037659607413   T   T   T
  0.1936365638084890  0.1078435678602476  0.2845945025752833   T   T   T
  0.1770622549160898  0.0888358025940755  0.5296105612643452   T   T   T
  0.1835766573501828  0.1073683316844082  0.7853327067448416   T   T   T
  0.6833944599691173  0.1069051910676601  0.0418263236075967   T   T   T
  0.6871492268941588  0.1183020157526298  0.2833139734027657   T   T   T
  0.6849474876913908  0.0946536458731843  0.5449791482963301   T   T   T
  0.6869071226705753  0.1281368832091198  0.7847816466356683   T   T   T
  0.1906697130254610  0.1293093569959736  0.1527709390770745   T   T   T
  0.1830576377948309  0.1370814507247763  0.4184801633922427   T   T   T
  0.1839894177028798  0.1328992997123565  0.6502817922205657   T   T   T
  0.1912087412714978  0.1417478206844841  0.9076936514310451   T   T   T
  0.6847757863856976  0.1376608864680456  0.1708753145900805   T   T   T
  0.6851238946963183  0.1245004379664652  0.4013700022297032   T   T   T
  0.6879377583409365  0.1318089627185577  0.6677254136052825   T   T   T
  0.6867537969115746  0.1287277336704093  0.9106852902697717   T   T   T
  0.4270665956707194  0.1092560837875929  0.0409601982138057   T   T   T
  0.4474011182536841  0.1110417258550874  0.2842928724075681   T   T   T
  0.4308389917815158  0.1092549642608279  0.5255744041271757   T   T   T
  0.4354171602828321  0.1137476062228386  0.7880636073242323   T   T   T
  0.9428986426516492  0.1109502558270858  0.0305043576466991   T   T   T
  0.9360619036761151  0.1005067372705518  0.2768480400054842   T   T   T
  0.9372672071213998  0.1045242638095837  0.5368758120545559   T   T   T
  0.9263814107359825  0.1148420717894317  0.7792030991342218   T   T   T
  0.4287631621058298  0.1304045451536956  0.1593576798749878   T   T   T
  0.4278116090712334  0.1313774510566076  0.4058199342416704   T   T   T
  0.4407114279883970  0.1309028673554710  0.6535618813794570   T   T   T
  0.4333598637997831  0.1361335701238826  0.9138846122670384   T   T   T
  0.9355754975208399  0.1379474956497973  0.1539193924366281   T   T   T
  0.9370524312815339  0.1351611507890310  0.4012926893672580   T   T   T
  0.9331085876797532  0.1210435456803260  0.6568031359344358   T   T   T
  0.9387145862334114  0.1442408651936521  0.9097692816287020   T   T   T
  0.2344918297021624  0.1122511675008387  0.0903419918554261   T   T   T
  0.2307467494273299  0.1152442734189050  0.3499932648404858   T   T   T
  0.2250250959463047  0.1090593384012856  0.5949902352187677   T   T   T
  0.2358253727485793  0.1071002209015614  0.8506732094734543   T   T   T
  0.7276706519655741  0.1089126296107601  0.1061169194449161   T   T   T
  0.7355165525681100  0.1094504975858742  0.3457811729431963   T   T   T
  0.7358437373384964  0.1076683445289109  0.6035564308079305   T   T   T
  0.7368706978803299  0.1045300183463622  0.8447478201749157   T   T   T
  0.2215897112005679  0.1004124076221500  0.2170709780012694   T   T   T
  0.2193347127936472  0.0951728581408350  0.4685614707028078   T   T   T
  0.2290054417047602  0.0983335555825392  0.7213170217427468   T   T   T
  0.2370934850914304  0.1159238081479532  0.9648703713052951   T   T   T
  0.7310406510165025  0.0989213617351494  0.2180865456427586   T   T   T
  0.7275531865549714  0.1005802675832435  0.4626027069532264   T   T   T
  0.7271428003512473  0.0922650495160682  0.7187934961503377   T   T   T
  0.7326236703300051  0.1007236237146337  0.9670065759781157   T   T   T
  0.4700563058335638  0.1162384072794085  0.0974773226299738   T   T   T
  0.4844433755905527  0.1108134393273187  0.3551239636279774   T   T   T
  0.4771261521879637  0.1132113401560773  0.5969911695222194   F   F   F
  0.4876737192033812  0.1056540648808962  0.8519516788805402   T   T   T
  0.9774499747114211  0.1141438729634350  0.1004076464011887   T   T   T
  0.9841100405660552  0.1264277490928406  0.3383561217854408   T   T   T
  0.9793520408255578  0.1091691133394215  0.5974163587251928   T   T   T
  0.9694353499397215  0.1126589633004438  0.8419515340010028   T   T   T
  0.4796795055019633  0.1087874844823804  0.2154999357740108   T   T   T
  0.4736562673921695  0.0906700991387583  0.4599907827195979   T   T   T
  0.4883222435366589  0.1049859906990989  0.7203401698610559   T   T   T
  0.4771859560154387  0.1149954869029040  0.9767265843302830   T   T   T
  0.9824086041256541  0.1029342387961293  0.2140048585079753   T   T   T
  0.9811192332772078  0.1062205784316791  0.4663103353992973   T   T   T
  0.9780710361964418  0.1039038344701654  0.7185316836583178   T   T   T
  0.9827824928556494  0.0985848025087678  0.9642131655113698   T   T   T
  0.0566117878502157  0.1218815952931318  0.1063499505167853   T   T   T
  0.0670044710124995  0.1327023456549481  0.3484264933879601   T   T   T
  0.0575559082406404  0.1163762668207407  0.5827139089072843   T   T   T
  0.0659523988905226  0.1255382759913641  0.8415218437308570   T   T   T
  0.5541035170316423  0.1385805023752770  0.1036364147007437   T   T   T
  0.5650142257109891  0.1250150835314416  0.3468511835153238   T   T   T
  0.5555387379398992  0.1242864986288930  0.6000742976576303   T   T   T
  0.5685031904421936  0.1287879968125093  0.8565221729846663   T   T   T
  0.0625536750109298  0.1292949419078912  0.2193990423881380   T   T   T
  0.0680343022688677  0.1359704964721303  0.4658737097647381   T   T   T
  0.0658896643695603  0.1401328523846481  0.7243808273840110   T   T   T
  0.0581370925271955  0.1251994543075644  0.9658310395355745   T   T   T
  0.5540970614921285  0.1424540589042609  0.2237694724216852   T   T   T
  0.5689337637367925  0.1335234792226005  0.4629021795300220   T   T   T
  0.5677068559423144  0.1340412418053477  0.7281347112930947   T   T   T
  0.5574325587326633  0.1388039344071030  0.9645097770200450   T   T   T
  0.3126922098281015  0.1212748808067157  0.0945920401601867   T   T   T
  0.3102259675189870  0.1113781348627545  0.3468070954912312   T   T   T
  0.3091912665792470  0.1135568889875830  0.5944540512803473   T   T   T
  0.3153845344051378  0.1210044634515570  0.8468517434237433   T   T   T
  0.8066652269406210  0.1215892020804600  0.0838360384719115   T   T   T
  0.8126569683230080  0.1355127672002020  0.3466681697490798   T   T   T
  0.8176570754167997  0.1232559568941491  0.5971667161607566   T   T   T
  0.8140095099621666  0.1282333329629319  0.8507763498014761   T   T   T
  0.3012855223955900  0.1250460759966688  0.2158647190444994   T   T   T
  0.3073824568620999  0.1274444070098205  0.4700048685277925   T   T   T
  0.3189919997503315  0.1344412170552104  0.7243424883042900   T   T   T
  0.3193690110073844  0.1388871521333213  0.9637749706706946   T   T   T
  0.8168606030815949  0.1362281590303342  0.2180230688748812   T   T   T
  0.8161552754740423  0.1329608562960343  0.4674420934398461   T   T   T
  0.8038462641881720  0.1296426534335783  0.7190697840212102   T   T   T
  0.8151918480459128  0.1350647961979349  0.9696501543911553   T   T   T
  0.5036615441342158  0.4308727359663158  0.4720217246398828   T   T   T
  0.5818250496937408  0.4611403281812244  0.5000296694968682   T   T   T
  0.4484754193989508  0.4506842150560886  0.5318070919160705   T   T   T
  0.0226054220475569  0.2135194481000277  0.1678784593500209   T   T   T
  0.0372916877478511  0.2189184554451950  0.4161325101511453   T   T   T
  0.0234030464019189  0.2136729531482503  0.6768012242525036   T   T   T
  0.0276714886232763  0.2164365373145615  0.9749274436093676   T   T   T
  0.4866211381040536  0.2783153757494141  0.1632649052107983   T   T   T
  0.5072118789869583  0.1997896578009767  0.4255598106369650   T   T   T
  0.5322853796856768  0.2347316210867532  0.7202696659030283   T   T   T
  0.5167996124782483  0.2330383477624099  0.9493230049606473   T   T   T
  0.1657075944529764  0.2102540038861274  0.1183737862704851   T   T   T
  0.1605667653936966  0.2066826735474951  0.3666469753177997   T   T   T
  0.1907287074700544  0.2337491993977494  0.6157265115122058   T   T   T
  0.0662816641576238  0.2066974040003381  0.8778991454948135   T   T   T
  0.6489906283759209  0.2252454123935728  0.1256368080897082   T   T   T
  0.6425561172645876  0.2254890089539829  0.4090110511626848   T   T   T
  0.6815320622855578  0.2317645186953494  0.6172651018955494   T   T   T
  0.6739780035168871  0.2105895388400831  0.8729250838659166   T   T   T
  0.4318552326439884  0.0173912683819862  0.1998455910045005   T   T   T
  0.4385827804610626  0.0063767116216260  0.4313952711169305   T   T   T
  0.4449897560029124  0.0160737728822367  0.6869194800601681   T   T   T
  0.4809665670796778  0.0219918401691525  0.9298838903008817   T   T   T
  0.9243228271092351  0.0242790731801034  0.2035703185530588   T   T   T
  0.9143550235756341  0.0199497709497928  0.4324876589215155   T   T   T
  0.9092325555331783  0.0148923085586988  0.6923114763885063   T   T   T
  0.9430049727361525  0.0029413551080811  0.9537318942013481   T   T   T
  0.1872404311599581  0.0146995517645461  0.1744068020822215   T   T   T
  0.1653756976874906  0.0085269473064283  0.4482681303584992   T   T   T
  0.1694665868865580  0.0135527609928613  0.6699996897566044   T   T   T
  0.2057033060711865  0.0158071934443913  0.9364963598156003   T   T   T
  0.6737318532960914  0.0036112271212738  0.1497154321162422   T   T   T
  0.7008066656169065  0.0197276029774947  0.4143003375352327   T   T   T
  0.6558056744619517  0.0206956464355314  0.6390221974020244   T   T   T
  0.7014339051519068  0.0182398457254272  0.9465966076044779   T   T   T
  0.2629595951960869  0.2239192116766242  0.1908723500948043   T   T   T
  0.2558207637862321  0.2245347463353328  0.4181218064933637   T   T   T
  0.2586400416134603  0.2141916854741948  0.7089960314368207   T   T   T
  0.2902310597916576  0.2476355140080138  0.9823106089889677   T   T   T
  0.7196306877423935  0.2218316618664565  0.1984291808676426   T   T   T
  0.7706120354809732  0.2128084698073622  0.4398360176016858   T   T   T
  0.7441393427591046  0.2159725678874443  0.6918977893986271   T   T   T
  0.7658572568771838  0.2250504863965652  0.9503676210849409   T   T   T
  0.0877789293518976  0.0155063007926377  0.1165660474345924   T   T   T
  0.0326725288420734  0.0143286433093786  0.4242530993966196   T   T   T
  0.0333636995949177  0.0112155868218549  0.7302784857854774   T   T   T
  0.0649201122231465  0.0151459817498820  0.9288974095526930   T   T   T
  0.5293198490010084 -0.0038745735767325  0.2035229974996202   T   T   T
  0.5718179496835957  0.0181153594477315  0.4379022568915336   T   T   T
  0.5415183002120854  0.0248186340670989  0.6322286233956896   T   T   T
  0.5700970766344138  0.0186180501663951  0.9405880089659440   T   T   T
  0.3092724566200260  0.0233681522330329  0.1895579037764621   T   T   T
  0.3308514487059662  0.0163726389800476  0.4472679388015771   T   T   T
  0.3248932841278526  0.0204984722854299  0.6864169923381135   T   T   T
  0.2955337365460434  0.0202793296903227  0.9290036690714746   T   T   T
  0.8060814453898250  0.0278518728692819  0.1720913399533666   T   T   T
  0.8299191615367263  0.0125650255703793  0.4380358012220446   T   T   T
  0.7855873115182661  0.0181880111563340  0.7108843454351235   T   T   T
  0.8267011319368632  0.0095270075668150  0.9268306006496310   T   T   T
  0.3720073608935487  0.2064742659805306  0.1774919114799013   T   T   T
  0.3606584114949592  0.2063523794359209  0.4663238592412199   T   T   T
  0.3748614053244289  0.2072747071875977  0.6708618723025490   T   T   T
  0.4289362975361353  0.2110503865504652  0.8192879773554637   T   T   T
  0.8952699711601234  0.2183685298885633  0.1963267879316007   T   T   T
  0.9014872538674258  0.2075372968643231  0.4407810048130494   T   T   T
  0.9175609970591128  0.2252647942038709  0.6632084993895970   T   T   T
  0.8996366912622984  0.2335655254895910  0.9255339834129757   T   T   T
  0.5178258793660901  0.3839487876730297  0.4708418153976021   T   T   T
  0.6292980440386740  0.4565278360921051  0.4600898057479287   T   T   T
  0.5817507232638846  0.5074524820599855  0.5051588068882513   T   T   T
  0.4187644454043777  0.4129910019136376  0.4196065485429135   T   T   T
  0.4767774324845383  0.3883585900142803  0.3758693401914373   T   T   T
  0.5440024048517119  0.4754818342174643  0.5996832195798865   T   T   T
  0.3555315248607905  0.4240864736637567  0.5883275116083103   T   T   T
  0.4708733981322614  0.4281914345592090  0.4066681613972583   T   T   T
  0.3262582448056943  0.1841829298121615  0.0703373448267763   T   T   T
  0.3281773297941299  0.1818872513526400  0.3157449000894187   T   T   T
  0.3415658917486304  0.1821454719475523  0.5693594269175803   T   T   T
  0.3375949924194719  0.1868651550285428  0.8304937002476920   T   T   T
  0.8329379578024358  0.1836400950613103  0.0676740499513248   T   T   T
  0.8399360768768747  0.1901282757473111  0.3160197074041659   T   T   T
  0.8400975701294383  0.1859096219432021  0.5740573366076341   T   T   T
  0.8210490851484875  0.1904656632019354  0.8262255216576623   T   T   T
  0.0838810486497946  0.1800473270131913  0.0824125342407603   T   T   T
  0.0905197429151881  0.1985595186962864  0.3267154010888059   T   T   T
  0.1004238502394058  0.1979956089900116  0.5717173553665332   T   T   T
  0.0982678200568604  0.2119736516874983  0.8190078628368596   T   T   T
  0.5641638653833427  0.2081721664701348  0.0734763922104835   T   T   T
  0.5799772035092100  0.1917037029060264  0.3208013462214939   T   T   T
  0.5808067138217031  0.1887107672011839  0.5689263756127779   T   T   T
  0.5936962564605962  0.1938352418139564  0.8252761105192489   T   T   T
  0.2107843868420956  0.0444845015512469  0.0721459019933588   T   T   T
  0.1968542402532891  0.0401894684089722  0.3250870501810308   T   T   T
  0.2025802808869288  0.0472466976619919  0.5690525304418148   T   T   T
  0.2169309782730307  0.0458600616895058  0.8228685192288094   T   T   T
  0.6985787226217315  0.0494364209668648  0.0755083397718550   T   T   T
  0.7021342147499419  0.0499344353237796  0.3218237919856479   T   T   T
  0.7108627675469104  0.0389777951155244  0.5744311268663169   T   T   T
  0.7082452348053053  0.0442705607218988  0.8305783022797834   T   T   T
  0.4711586186472626  0.0489659807374151  0.0695173387438485   T   T   T
  0.4659053561905066  0.0543157741178651  0.3207216601894487   T   T   T
  0.4579358089765301  0.0326408878012916  0.5671640416424939   T   T   T
  0.4429949699349281  0.0502409249712273  0.8306590218667985   T   T   T
  0.9570185009808516  0.0563440650153026  0.0659738787437499   T   T   T
  0.9726708553172893  0.0506265223621741  0.3324495699340768   T   T   T
  0.9663431686752282  0.0448628691224811  0.5636934865023265   T   T   T
  0.9463513717664863  0.0502468276736576  0.8258067436888640   T   T   T
  0.0603079360575951  0.2066391377980743  0.2103869437884022   T   T   T
  0.0734878653966119  0.2041332256074060  0.4523549028545292   T   T   T
  0.0756459117187248  0.2107385435352541  0.7166817209808297   T   T   T
  0.0631269267347343  0.1914009330203583  0.9536184891663587   T   T   T
  0.5593730938917416  0.2093597366169942  0.2160747318481148   T   T   T
  0.5552574828277942  0.1982249271840300  0.4606776163394862   T   T   T
  0.5595825406499458  0.1960599819414336  0.6940790030234467   T   T   T
  0.5636899908353691  0.2056858298718221  0.9556061232111922   T   T   T
  0.1911240338289626  0.1986608152237580  0.1569544007163468   T   T   T
  0.2058685901506891  0.2015654601053258  0.4023565099484908   T   T   T
  0.2052165188617256  0.1966431317535374  0.6445944548949990   T   T   T
  0.2056233998794164  0.2093481476521226  0.9007120184020531   T   T   T
  0.6954295373437889  0.2040843457881882  0.1574538374617782   T   T   T
  0.6985262363173914  0.1994149376853518  0.4026558036684078   T   T   T
  0.6967263663909993  0.2042389541363684  0.6567754205338158   T   T   T
  0.7108486668581171  0.2041051495300257  0.9051646391369261   T   T   T
  0.4902124572641752  0.0243306468091640  0.2145079661926944   T   T   T
  0.4882355546013216  0.0250469678000126  0.4593761684149789   T   T   T
  0.4927045286935262  0.0330815237153075  0.7183905269508857   T   T   T
  0.4927065527862692  0.0300009269419515  0.9715256004828069   T   T   T
  0.9965649547408041  0.0362011662070070  0.2055811231304137   T   T   T
  0.9771732249011663  0.0357144064426836  0.4592989663181878   T   T   T
  0.9878641022191261  0.0290195877201890  0.7231007919492755   T   T   T
  0.9953283377364202  0.0279697100175212  0.9575186171765805   T   T   T
  0.2297649895700668  0.0345117683892514  0.2109236674537854   T   T   T
  0.2255623987460390  0.0294972412651243  0.4485001746612533   T   T   T
  0.2392813291862863  0.0357328815792688  0.7069785922161916   T   T   T
  0.2373010065275117  0.0305020138774926  0.9734399879476384   T   T   T
  0.7215110126228907  0.0355783130526624  0.2005551233985122   T   T   T
  0.7414210774002212  0.0403778567490641  0.4436850201280910   T   T   T
  0.7314028016433235  0.0246118922679658  0.7069509322594990   T   T   T
  0.7448941172059816  0.0341366499080815  0.9546560729144028   T   T   T
  0.3104319776893233  0.2021774969957079  0.2149870550291719   T   T   T
  0.3097666779527725  0.2004712797749684  0.4576365782626159   T   T   T
  0.3205657315827136  0.1996166343945123  0.7085379336861551   T   T   T
  0.3236312112669238  0.2094981225515766  0.9726649555668545   T   T   T
  0.8144867402884182  0.2020873505675073  0.2125102610404782   T   T   T
  0.8154125671728523  0.2034663527618583  0.4706707496202104   T   T   T
  0.8046645391580675  0.2040028922741296  0.7030015292131297   T   T   T
  0.8280500801176496  0.2069470970050306  0.9605722021412644   T   T   T
  0.1055902300789431  0.0373776151680052  0.1559748814488122   T   T   T
  0.0960439470706026  0.0295103868474241  0.4151666880421412   T   T   T
  0.1097667144860386  0.0267480840156052  0.6657368141890722   T   T   T
  0.1147541150628057  0.0392523578488505  0.9036441949044008   T   T   T
  0.6066198154679434  0.0254247196218566  0.1567381374720646   T   T   T
  0.6136764185841523  0.0258114878816695  0.4110423483335817   T   T   T
  0.6124134690468519  0.0419075363115919  0.6645368346877697   T   T   T
  0.6072815782438904  0.0289507384025787  0.9042520910133219   T   T   T
  0.3620516935032991  0.0358595847736982  0.1760438340949316   T   T   T
  0.3644401449426023  0.0288776603722716  0.4063778966458715   T   T   T
  0.3768314721389759  0.0231138703203160  0.6691100017810132   T   T   T
  0.3556488144450795  0.0272066091944587  0.9129238554040923   T   T   T
  0.8665578314784018  0.0398939078228433  0.1607497267091153   T   T   T
  0.8630581791290539  0.0266414455995532  0.4001671022007390   T   T   T
  0.8678175218638445  0.0273480548190648  0.6625585890336388   T   T   T
  0.8728623695485943  0.0221895747734280  0.9024947175463157   T   T   T
  0.4420672864736614  0.1943130768541420  0.1608608847736714   T   T   T
  0.4459441499407538  0.2014127005756548  0.4067520401921426   T   T   T
  0.4386709531833199  0.1936744427240435  0.6631003575970255   T   T   T
  0.4388102401082009  0.2025162745506148  0.9063156669743434   T   T   T
  0.9480333017379068  0.2043023693790381  0.1515716817412128   T   T   T
  0.9457127353459366  0.2002879415289240  0.4124056150812062   T   T   T
  0.9573547696718759  0.1951035423182286  0.6691950783391434   T   T   T
  0.9435515022966233  0.2145752488033063  0.8974746862254203   T   T   T
  0.4124780612706700  0.4052119483856748  0.5681284109438722   T   T   T
  0.4245485528820794  0.5101698950163325  0.5434124615604716   F   F   F
  0.6210151807989732  0.4566035556827257  0.5842756139556856   T   T   T
 
 -0.42308702E-02 -0.28234602E-01  0.18357433E-01
  0.11650730E-01 -0.58340859E-02  0.12615572E-01
 -0.19396149E-01 -0.14464560E-01 -0.32363750E-02
  0.65601658E-02 -0.10514773E-01 -0.49317003E-02
 -0.26946190E-01  0.13328207E-01  0.21724657E-01
 -0.26998916E-01  0.61542667E-02  0.17504654E-02
  0.35013488E-02 -0.31892360E-01  0.30236872E-03
  0.15302060E-02  0.37768193E-02  0.21953204E-01
 -0.13297074E-02 -0.14035710E-01  0.36734812E-01
 -0.11336743E-01  0.11828129E-01 -0.96671644E-02
 -0.71927814E-02  0.22391775E-01  0.14736538E-02
  0.10124406E-02  0.28873493E-01 -0.10566951E-02
 -0.22410311E-01  0.62843015E-02  0.27750152E-01
 -0.18460907E-01 -0.13158981E-01 -0.80605501E-02
  0.12631726E-01  0.30368249E-01  0.13502326E-01
  0.73323807E-02  0.78640835E-02  0.19685418E-01
 -0.27131520E-01  0.90506225E-02  0.35632905E-02
 -0.40634234E-02 -0.50915769E-02 -0.12694215E-01
 -0.10812733E-01 -0.45440103E-02 -0.59143832E-02
 -0.40683009E-02  0.13492469E-01 -0.63488021E-02
 -0.14908610E-01  0.11380543E-01 -0.76718430E-03
  0.30767034E-04  0.19865427E-02 -0.15193072E-01
 -0.71289124E-02  0.15291891E-02  0.88074378E-02
 -0.14679620E-01  0.35618880E-01 -0.37794655E-02
 -0.11535685E-01  0.33156541E-02  0.12023783E-01
 -0.45803690E-02 -0.32091284E-02  0.20880653E-01
 -0.44950118E-02 -0.35875965E-01  0.52589231E-02
 -0.17243514E-01 -0.16879391E-01  0.72690958E-02
 -0.70918767E-02  0.12549251E-01 -0.12947127E-01
  0.12461536E-01  0.71106764E-02  0.64683561E-02
 -0.12302123E-01 -0.13038601E-01  0.11159827E-01
  0.56103914E-02  0.48597269E-02  0.22436535E-03
  0.20675037E-01  0.21481834E-01  0.25703637E-02
 -0.40588742E-01  0.11662920E-01 -0.10314750E-02
  0.20179939E-01 -0.13076724E-01 -0.96997649E-02
  0.41944713E-02  0.87136678E-02 -0.15142414E-01
  0.98368249E-02  0.27728978E-01  0.14325341E-01
  0.35716828E-02  0.25014718E-01 -0.13968418E-01
  0.15600172E-01  0.77206201E-03  0.17959375E-01
  0.67063460E-02  0.40332460E-01 -0.10682542E-01
 -0.11014759E-01  0.21916965E-02  0.38637813E-02
 -0.11391499E-01 -0.13253954E-01 -0.12412332E-01
 -0.26870474E-01 -0.21116183E-01  0.65810442E-02
  0.43433524E-02  0.24429301E-01 -0.88808294E-02
 -0.89305007E-02 -0.21748551E-01  0.14327215E-01
  0.83699909E-02  0.58359797E-02 -0.15911171E-02
 -0.15791617E-01  0.35085882E-02 -0.54574974E-02
  0.61692767E-02 -0.80005697E-02  0.39934656E-03
  0.14393545E-01 -0.14422494E-01  0.16056364E-01
 -0.19166321E-01 -0.10965734E-01 -0.10803700E-01
 -0.40866606E-02 -0.24717988E-01  0.17865260E-01
  0.27070037E-01 -0.87590150E-02  0.74556728E-03
 -0.10704201E-01  0.50348682E-02 -0.49505545E-02
  0.49128086E-02 -0.24346641E-01  0.37861858E-02
 -0.12899494E-01 -0.20737340E-01 -0.73752588E-02
 -0.22962020E-01  0.70933909E-02 -0.99956983E-02
 -0.26199545E-01 -0.19643028E-01  0.17556864E-01
 -0.12017439E-01  0.67327829E-02  0.49472765E-02
  0.10331565E-01 -0.12577368E-01  0.32512764E-02
  0.33926023E-01  0.29984579E-02  0.58329253E-02
  0.22730908E-02  0.79910503E-02 -0.13828615E-01
 -0.97859316E-03 -0.11591591E-01 -0.16906343E-01
  0.16886916E-01 -0.80951668E-02 -0.53689958E-02
 -0.31435321E-01  0.26598803E-01  0.23055711E-01
 -0.12810308E-01  0.97877344E-02  0.14056296E-01
 -0.23956455E-01  0.12282000E-01  0.25880001E-01
 -0.40874498E-02  0.10226314E-01  0.46925952E-03
  0.13588396E-01  0.28470781E-01  0.10663933E-01
 -0.14436319E-01  0.18719105E-01  0.22403489E-01
  0.19487015E-02  0.28909036E-01 -0.16362670E-01
 -0.19628486E-01  0.95519359E-02  0.23455330E-01
 -0.83299892E-02  0.10170177E-01  0.61508827E-02
 -0.39695525E-02  0.85970767E-02 -0.10471736E-01
  0.91783274E-02 -0.14332836E-01  0.22550341E-02
  0.27054533E-02  0.44677765E-01  0.10292045E-01
  0.12316917E-01  0.17183193E-01 -0.34982980E-02
 -0.12341765E-02  0.15880928E-01  0.19012055E-01
  0.43019509E-02  0.14195066E-01  0.50190417E-02
  0.76614106E-02 -0.53133705E-02  0.39283198E-01
  0.68956510E-02  0.64512242E-02  0.11062808E-01
  0.20050012E-01 -0.10057168E-01 -0.26088380E-01
  0.12102450E-01 -0.34806248E-03 -0.94629801E-02
  0.00000000E+00  0.00000000E+00  0.00000000E+00
 -0.24851740E-02  0.69114763E-02  0.21152916E-01
  0.10416399E-01  0.12764688E-01  0.76261642E-02
  0.35144919E-03  0.11637354E-01 -0.19003383E-01
 -0.21764998E-03 -0.10547343E-01 -0.10529970E-01
  0.19828830E-01 -0.47176519E-03 -0.41795932E-01
 -0.10592229E-01  0.23158696E-03  0.12328853E-01
  0.10779302E-01 -0.18383882E-01 -0.20566673E-01
 -0.19008277E-01 -0.15004336E-01  0.16152230E-01
 -0.11626597E-01  0.16794972E-01  0.89932294E-02
 -0.19424532E-02 -0.77066448E-02 -0.86426196E-02
  0.15834929E-01  0.16441898E-01 -0.10704899E-01
  0.17310539E-02 -0.51442882E-02  0.27440146E-01
  0.21522374E-01 -0.18804084E-02 -0.27442629E-01
 -0.23097703E-02 -0.35544564E-01  0.49344985E-02
  0.19646532E-01 -0.77016255E-02 -0.50420813E-02
  0.81607752E-02 -0.29182142E-01  0.29977679E-01
 -0.13871054E-01 -0.19544462E-01  0.14535834E-02
 -0.69106994E-02  0.89541407E-02  0.15987650E-01
  0.31253780E-01 -0.14333660E-01  0.22945826E-02
  0.73570055E-03 -0.13040613E-01  0.42885762E-01
  0.11710660E-01 -0.12690418E-01 -0.12569576E-01
  0.11132130E-01  0.23770560E-01 -0.30585208E-03
 -0.14918017E-01  0.15972326E-01 -0.15737880E-01
  0.58903340E-02  0.19122482E-01 -0.24769304E-02
  0.23611757E-01 -0.11448251E-01 -0.62460817E-02
  0.23975916E-01  0.31458417E-01  0.35950592E-02
  0.82904266E-02 -0.63827612E-02 -0.21176604E-02
 -0.11100354E-02  0.19045619E-01  0.33642363E-01
  0.16941702E-02  0.21213364E-01  0.21887825E-01
  0.14490747E-01 -0.21947232E-01  0.11286383E-01
  0.11024291E-01 -0.12091340E-01 -0.21499731E-01
  0.25035535E-01 -0.17507423E-01  0.12157712E-01
  0.68952409E-02 -0.27523102E-03  0.11429028E-01
  0.27644523E-01 -0.13363798E-02  0.19651611E-01
 -0.66346691E-02 -0.25787514E-02 -0.87743509E-02
  0.28242271E-01 -0.30734612E-02  0.15545440E-01
  0.16880277E-01 -0.10261979E-01  0.93501539E-02
 -0.10621626E-01 -0.64270425E-02 -0.14787425E-01
 -0.92608868E-02 -0.10088526E-01 -0.95558796E-02
 -0.22990485E-02 -0.17329236E-01 -0.18606448E-01
 -0.26474593E-02  0.19239205E-01 -0.54611229E-02
 -0.56501380E-02 -0.20478682E-01 -0.14449821E-01
  0.58032073E-02 -0.11392876E-01 -0.74146043E-02
 -0.16522745E-01  0.27397854E-02 -0.28573511E-01
  0.31716366E-01  0.21326960E-03 -0.11804966E-01
  0.37796378E-01  0.20349427E-01 -0.11025682E-01
  0.39833133E-02  0.10710252E-01  0.92712542E-02
 -0.14331590E-02  0.35798571E-01  0.67922244E-02
 -0.21394810E-01 -0.43088786E-01 -0.90557572E-01
  0.43411996E-01 -0.83949322E-01 -0.38362003E-01
  0.11797906E+00  0.84266758E-01 -0.45433751E-02
  0.37352776E-01  0.14500840E-01  0.61855857E-01
 -0.63405025E-01  0.91430213E-01 -0.71666085E-01
  0.37474128E-01  0.57825238E-01 -0.49551791E-01
  0.26554056E-01 -0.59216494E-01  0.82108645E-01
 -0.43891793E-01 -0.26468913E-01 -0.27798192E-01
 -0.13146197E-01 -0.13946412E-04 -0.33406467E-02
  0.36194793E-01  0.32160912E-01 -0.57860289E-01
 -0.11912879E-01 -0.26551741E-01 -0.71186535E-01
 -0.16324710E+00  0.60776443E-01  0.91531636E-01
 -0.17384747E-01  0.21112052E-02  0.65126625E-01
 -0.78099860E-01 -0.13133670E-01  0.94882339E-01
  0.15479479E-01 -0.17738927E+00  0.61062578E-01
 -0.49295687E-02  0.65473453E-01 -0.71231280E-01
  0.55287185E-01 -0.40844382E-01 -0.28648410E-01
  0.19485995E+00 -0.26456401E-01  0.45310430E-01
  0.11720222E-01  0.82018171E-01  0.37503814E-01
  0.90986306E-01 -0.46436034E-02 -0.52867921E-01
  0.11922640E+00 -0.55908730E-01 -0.76538563E-01
  0.71399465E-01 -0.89609448E-01 -0.85247583E-01
  0.84733002E-01 -0.10520999E+00  0.31623980E-01
  0.80358116E-01 -0.27439093E-01 -0.38577160E-01