C H N S                                 
   1.00000000000000     
    20.0000000000000000    0.0000000000000000    0.0000000000000000
     0.0000000000000000   21.3509999999999991    0.0000000000000000
     0.0000000000000000    0.0000000000000000   19.7231999999999985
   C    H    N    S 
   1     4     2     1
Selective dynamics
Direct
  0.1620740823960034  0.4972381898090035  0.5086088277789997   F   F   F
  0.1429304655161024  0.4525187696802063  0.4198129770026580   T   T   T
  0.1346781908795283  0.4070152893303050  0.4885565964700320   T   T   T
  0.1434132929616016  0.5365165323308789  0.4198096732780395   T   T   T
  0.1080910120783243  0.5786534144938278  0.4745742676518773   T   T   T
  0.1626127576003354  0.4439649212377523  0.4684694692042166   T   T   T
  0.1529602728261236  0.5540486082297572  0.4680375270461961   T   T   T
  0.1759200174067718  0.4885106039440520  0.5898148160115618   T   T   T