C H N O S                               
   1.00000000000000     
    17.0814999999999984    0.0000000000000000    0.0000000000000000
     0.0000000000000000   21.3509999999999991    0.0000000000000000
     0.0000000000000000    0.0000000000000000   19.7240000000000002
   C    H    N    O    S 
   129    36     2    64     1
Selective dynamics
Direct
  0.0365185405651900  0.1388179878960685  0.0628195922289478   T   T   T
  0.0365157823409916  0.1388178952552863  0.5628198091070971   T   T   T
  0.5365201303325122  0.1388173635824188  0.0628176343515037   T   T   T
  0.5365285427919275  0.1388201613064979  0.5628105781117370   T   T   T
  0.0467423271382827  0.1389922933297356  0.3121366956482134   T   T   T
  0.0467449170747045  0.1389917734344976  0.8121316974790886   T   T   T
  0.5467539530524093  0.1389893449578139  0.3121280516428371   T   T   T
  0.5467521139390712  0.1389917840233394  0.8121269124742696   T   T   T
  0.0359025181078181  0.1487484963791488  0.1881938534758376   T   T   T
  0.0359025948801559  0.1487492617876072  0.6881932017782404   T   T   T
  0.5359064463384797  0.1487491970569721  0.1881931166968087   T   T   T
  0.5359177112583851  0.1487245823447481  0.6881958784823752   T   T   T
  0.0370680945482960  0.1484564858791444  0.4381720247354579   T   T   T
  0.0370701424618716  0.1484570987885547  0.9381696800656130   T   T   T
  0.5370741467639277  0.1484602029399440  0.4381606087562417   T   T   T
  0.5370675002872858  0.1484570527737645  0.9381694996675591   T   T   T
  0.2861713164073549  0.1482845105960280  0.0631714563103500   T   T   T
  0.2861733428968734  0.1482840343620069  0.5631703402003865   T   T   T
  0.7861704155473461  0.1482846407468799  0.0631715620331619   T   T   T
  0.7861637191091546  0.1482762477504806  0.5631705775703679   T   T   T
  0.2861491743155966  0.1478198192342788  0.3132011707408680   T   T   T
  0.2861466726671296  0.1478191053043787  0.8132019408332454   T   T   T
  0.7861395442538850  0.1478158501569879  0.3132025796056581   T   T   T
  0.7861424945498428  0.1478202856030180  0.8132004477575663   T   T   T
  0.2865023652904313  0.1466552886214245  0.1874842672194532   T   T   T
  0.2865015051144155  0.1466538576396843  0.6874857332565156   T   T   T
  0.7865036366331211  0.1466570875522137  0.1874897802248299   T   T   T
  0.7865041781589497  0.1466598688490919  0.6874844952340879   T   T   T
  0.2962090124946144  0.1395948678052363  0.4373379359235088   T   T   T
  0.2961559610723867  0.1395689049785389  0.9373328727470849   T   T   T
  0.7960800940609047  0.1394258716097241  0.4373920993711309   T   T   T
  0.7961304036414134  0.1395543561939832  0.9373356888640316   T   T   T
  0.1230920843760970  0.1418060001528687  0.0626188104419683   T   T   T
  0.1230905858207265  0.1418060809020361  0.5626191149313513   T   T   T
  0.6230936786205987  0.1418063972131591  0.0626190310995653   T   T   T
  0.6230911921152114  0.1418097416884407  0.5626180444289304   T   T   T
  0.1303172484600381  0.1475480111107359  0.3131193548330415   T   T   T
  0.1303145241305756  0.1475529065454992  0.8131200745485927   T   T   T
  0.6303201340130826  0.1475571987721551  0.3131240352508655   T   T   T
  0.6303231002056364  0.1475485261247655  0.8131204854239158   T   T   T
  0.1197603607353344  0.1481810739591083  0.1868540927236353   T   T   T
  0.1197589238979049  0.1481808086369654  0.6868552199919193   T   T   T
  0.6197641985055355  0.1481760099339553  0.1868541076758916   T   T   T
  0.6197837443499026  0.1481928688107175  0.6868449579846754   T   T   T
  0.1290832263079480  0.1476080980793881  0.4372571668451997   T   T   T
  0.1290834710799800  0.1476076318741946  0.9372588375928856   T   T   T
  0.6290839850033905  0.1476124233722089  0.4372635646701468   T   T   T
  0.6290903304452797  0.1476059919040367  0.9372570702843532   T   T   T
  0.3702659051988491  0.1389834441674722  0.0619592274417471   T   T   T
  0.3702670540238771  0.1389776360742871  0.5619582275357047   T   T   T
  0.8702698912379034  0.1389854229506682  0.0619597179034841   T   T   T
  0.8702584403982598  0.1389909690075442  0.5619575217592967   T   T   T
  0.3705480460770403  0.1387166940995854  0.3121776484609597   T   T   T
  0.3705431904368766  0.1387171264526899  0.8121772721428542   T   T   T
  0.8705204541651810  0.1387094767199031  0.3121531136504743   T   T   T
  0.8705394617605151  0.1387135525823595  0.8121600555440835   T   T   T
  0.3707434263474951  0.1393200447230782  0.1875498862740983   T   T   T
  0.3707443012949128  0.1393187766552728  0.6875466226387488   T   T   T
  0.8707379708334884  0.1393226844785573  0.1875438537080711   T   T   T
  0.8707373508313552  0.1393247103716604  0.6875428222193065   T   T   T
  0.3805443657621623  0.1480288315700022  0.4379002845570241   T   T   T
  0.3805334054960028  0.1480456117370181  0.9379031384059999   T   T   T
  0.8804840222114265  0.1480399846971494  0.4379106472426102   T   T   T
  0.8805278774764247  0.1480450004579907  0.9379039286650439   T   T   T
  0.1662264943217551  0.1670741985471267  0.1245272004990383   T   T   T
  0.1662258248215878  0.1670687706526550  0.6245267016367961   T   T   T
  0.6662261067688178  0.1670755997265942  0.1245284224686074   T   T   T
  0.6662257061005903  0.1671004590596183  0.6245309468381350   T   T   T
  0.1674326580256675  0.1680767534913201  0.3749648930039982   T   T   T
  0.1674338718062316  0.1680894455622592  0.8749628829990925   T   T   T
  0.6674348719728727  0.1681105192025356  0.3749634032919644   T   T   T
  0.6674308417550421  0.1680874003887851  0.8749635965574782   T   T   T
  0.1668041905287865  0.1484987394823278  0.2492370621962152   T   T   T
  0.1668044414713989  0.1484986902304755  0.7492380962273728   T   T   T
  0.6668040094368379  0.1484989153951517  0.2492396129503689   T   T   T
  0.6668508166958134  0.1485428003150560  0.7492451331346714   T   T   T
  0.1673225453041098  0.1478879525448136  0.0003767161991561   T   T   T
  0.1673197632891217  0.1478881338801656  0.5003768597649270   T   T   T
  0.6673219215835147  0.1478880243187675  0.0003777634130842   T   T   T
  0.6673106699905276  0.1478954745247378  0.5003776923022443   T   T   T
  0.4162760780132189  0.1466948393089851  0.1246860734013424   T   T   T
  0.4162815163679099  0.1466939700177363  0.6246855038630486   T   T   T
  0.9162788432587092  0.1466978203731344  0.1246766447406316   T   T   T
  0.9162796114346961  0.1467024076129206  0.6246691720781925   T   T   T
  0.4172073215197400  0.1476980960841630  0.3740775123873235   T   T   T
  0.4172042688724815  0.1476981617540574  0.8740778656210964   T   T   T
  0.9171897160112508  0.1476976367482479  0.3740753927725322   T   T   T
  0.9172005792808520  0.1476982709365160  0.8740754503857460   T   T   T
  0.4159275844736499  0.1587754646438171  0.2500953157664583   T   T   T
  0.4159168589073445  0.1587701823733809  0.7500992687376424   T   T   T
  0.9158675685718762  0.1587982500087435  0.2500952313695066   T   T   T
  0.9158744861097574  0.1588098966297338  0.7500933035243733   T   T   T
  0.4165406284935074  0.1670376655099801  0.0008518223749903   T   T   T
  0.4165026517864590  0.1669975396129146  0.5008090538289238   T   T   T
  0.9165351135025332  0.1670361440177359  0.0008492185701101   T   T   T
  0.9165176762646396  0.1670394080767181  0.5008452929995713   T   T   T
  0.9994615378849403  0.1664123943521716  0.1243831817801393   T   T   T
  0.9994594015461686  0.1664105820500765  0.6243833808348214   T   T   T
  0.4994615970671390  0.1664110253228870  0.1243831449251971   T   T   T
  0.4994731685786817  0.1664135495535319  0.6243855626160837   T   T   T
  0.0004093922545110  0.1668001303005511  0.3741645126984992   T   T   T
  0.0004146157696212  0.1668031259434031  0.8741633260968698   T   T   T
  0.5004125065313332  0.1668042562596597  0.3741682575526539   T   T   T
  0.5004174505748438  0.1667993132055869  0.8741638341818216   T   T   T
  0.0003187836526237  0.1478520022807004  0.2493151024693674   T   T   T
  0.0003203410686226  0.1478532079863442  0.7493160690712486   T   T   T
  0.5003214627292820  0.1478524521546944  0.2493210673313442   T   T   T
  0.5003226991286809  0.1478502352440216  0.7493209374967122   T   T   T
  0.9999128977377509  0.1485545307066687  0.9991285432917962   T   T   T
  0.9999089203720004  0.1485547040735824  0.4991261457081109   T   T   T
  0.4999125069069521  0.1485538588872188  0.9991298566606517   T   T   T
  0.4999087257935031  0.1485612393775497  0.4991338157849299   T   T   T
  0.2495965221556702  0.1485778464055727  0.1241503406427071   T   T   T
  0.2495959846482521  0.1485778377605698  0.6241509121637847   T   T   T
  0.7495981807370455  0.1485776137279444  0.1241505492797543   T   T   T
  0.7495944759834217  0.1485772102500391  0.6241502446872573   T   T   T
  0.2504644307043762  0.1483378787783067  0.3743226693176069   T   T   T
  0.2504574195718945  0.1483422831565662  0.8743208150191961   T   T   T
  0.7504387941550377  0.1483454673117208  0.3743225551054223   T   T   T
  0.7504576691724978  0.1483372619852972  0.8743209579993092   T   T   T
  0.2500390442738265  0.1671241009300672  0.2496183673460237   T   T   T
  0.2500401031251229  0.1671236860034924  0.7496192295316746   T   T   T
  0.7500472373125646  0.1671256866427555  0.2496278077292615   T   T   T
  0.7500470928302860  0.1671424640137147  0.7496176534887979   T   T   T
  0.2503179778669207  0.1672697239348224  0.9993971387129719   T   T   T
  0.2503203678644468  0.1672475202280879  0.4993987369373940   T   T   T
  0.7503179929196904  0.1672689573576420  0.9993980385323198   T   T   T
  0.7503182313731145  0.1672951919175887  0.4993851731677239   T   T   T
  0.5007620193701214  0.3705881793225529  0.4995539938283073   T   T   T
  0.3067027689275221  0.2485059630441810  0.4918032072407570   T   T   T
  0.3066105745732628  0.2486598591538396  0.9914982180862424   T   T   T
  0.8065903202323739  0.2486820868047417  0.4914593838242638   T   T   T
  0.8066067983235357  0.2486660023732270  0.9914884354820899   T   T   T
  0.1995693470174231  0.2528161176570478  0.4035379048554333   T   T   T
  0.1995884158453762  0.2528096942654940  0.9035392389915984   T   T   T
  0.6995243831300613  0.2529595152181727  0.4035024528116438   T   T   T
  0.6995739166233435  0.2528458047018205  0.9035379087137798   T   T   T
  0.2115140782115574  0.2484360982697709  0.1536876025222682   T   T   T
  0.2114958817582959  0.2484299252900826  0.6537030621042987   T   T   T
  0.7115140528730493  0.2484375878802254  0.1536964363634397   T   T   T
  0.7115183483091556  0.2484386854976819  0.6536728063197899   T   T   T
  0.4376954684024454  0.2435624784291974  0.2889341502540077   T   T   T
  0.4376879186367617  0.2435780244500378  0.7889317651764003   T   T   T
  0.9376870435801408  0.2435738221934045  0.2889330349886308   T   T   T
  0.9376871722754814  0.2435741676869512  0.7889307673767618   T   T   T
  0.4376684284323318  0.2482205720686181  0.0491819107496241   T   T   T
  0.4388855000021792  0.2460819080433723  0.5485206562944853   T   T   T
  0.9377151069668983  0.2481600840951543  0.0492187561766002   T   T   T
  0.9382081338320774  0.2482263455542224  0.5491174447187319   T   T   T
  0.3196686196926635  0.2406945029033238  0.2498563926663238   T   T   T
  0.3196830564207431  0.2406640354188241  0.7496992421512090   T   T   T
  0.8197264028963431  0.2406549493202661  0.2495273346224920   T   T   T
  0.8197323393957845  0.2406571424428563  0.7495512010610739   T   T   T
  0.0567591497949422  0.2479882138681475  0.3575348307388211   T   T   T
  0.0568319555824246  0.2480735273797308  0.8576578342627812   T   T   T
  0.5567455537687422  0.2478108135597807  0.3575320300756530   T   T   T
  0.5568151591241701  0.2480462805893140  0.8576128603848758   T   T   T
  0.0567143355913942  0.2435505144284207  0.1071866110826463   T   T   T
  0.0567141659748955  0.2435463376221421  0.6071864582407898   T   T   T
  0.5567158138626738  0.2435500398340977  0.1071899775394911   T   T   T
  0.5567010679321669  0.2436001667256278  0.6071031505533000   T   T   T
  0.3999440103749450  0.3749933121489022  0.4420238048786587   T   T   T
  0.4962605929748776  0.3727042583327034  0.3979440319115923   T   T   T
  0.3999577357043833  0.3750120708192455  0.5578849639522190   T   T   T
  0.4973774587234416  0.3729232414212404  0.6019114095017386   T   T   T
  0.4625468808458209  0.3703832239439251  0.4391945847078986   T   T   T
  0.4625823922379340  0.3703654929647868  0.5607222547266346   T   T   T
  0.2500596283193843  0.2402279174101096  0.4893998347195989   T   T   T
  0.2500479539652716  0.2402248804946794  0.9893918045916408   T   T   T
  0.7500583953899778  0.2401923230124012  0.4893866619139970   T   T   T
  0.7500491026938718  0.2402245808791221  0.9893877479834359   T   T   T
  0.1666730811085060  0.2403169132657510  0.3649563048721305   T   T   T
  0.1666599525205541  0.2403005980501973  0.8649216976923100   T   T   T
  0.6667155057842749  0.2402716791106485  0.3649693593463610   T   T   T
  0.6666879600398161  0.2403171975171858  0.8650070665808940   T   T   T
  0.1666602034613049  0.2402131787776582  0.1247404981690607   T   T   T
  0.1666719393871006  0.2402147880282470  0.6247360357413569   T   T   T
  0.6666652841668537  0.2402129723669901  0.1247381468457576   T   T   T
  0.6666649322262970  0.2402096094347073  0.6247451322122828   T   T   T
  0.4048948132366945  0.2310191326244606  0.2502305747346369   T   T   T
  0.4048971959365986  0.2310178791599498  0.7502292152507977   T   T   T
  0.9049000069090667  0.2310120644739868  0.2502261335096350   T   T   T
  0.9049005010305819  0.2310134687885039  0.7502269672610780   T   T   T
  0.4047765751297376  0.2360703677518075  0.0095627845439026   T   T   T
  0.4047713964149011  0.2360513869900700  0.5095887104986119   T   T   T
  0.9047840890541750  0.2360709946252655  0.0096355404387509   T   T   T
  0.9047859638369360  0.2360637304279507  0.5095919336442947   T   T   T
  0.2618214081786903  0.2361089928223734  0.2491678465674099   T   T   T
  0.2618198498748470  0.2361222641890492  0.7491585550508475   T   T   T
  0.7618303808608786  0.2361039317101969  0.2491642795663651   T   T   T
  0.7618213683878210  0.2361613515026377  0.7491728436694061   T   T   T
  0.0000383698601922  0.2360728028831218  0.3637558883054979   T   T   T
  0.0000564307310995  0.2360711543547822  0.8637593784078632   T   T   T
  0.5000569781032453  0.2360712946040522  0.3637584583438951   T   T   T
  0.5000559009567738  0.2360709909677823  0.8637591841108048   T   T   T
  0.0001518783244379  0.2320976225560969  0.1143721055481706   T   T   T
  0.0001535883087698  0.2320981750827329  0.6143733692560787   T   T   T
  0.5001516800219363  0.2320978444653718  0.1143730582357136   T   T   T
  0.5001448432566349  0.2320915585898717  0.6143725548967396   T   T   T
  0.3451526448534423  0.0877924047269190  0.4384277826707859   T   T   T
  0.3451643369936548  0.0878019945402855  0.9384417039171993   T   T   T
  0.8451583959520619  0.0877790604791500  0.4384523380845664   T   T   T
  0.8451642040912191  0.0878011898977462  0.9384427269608508   T   T   T
  0.3332284567095698  0.0828649338486827  0.1879786562576484   T   T   T
  0.3332278945119853  0.0828658743862718  0.6879782934903460   T   T   T
  0.8332297324191558  0.0828651575196560  0.1879769976162677   T   T   T
  0.8332299186747463  0.0828640006324619  0.6879786385771709   T   T   T
  0.1666632164500896  0.0879494734339374  0.4678712203781217   T   T   T
  0.1666630358958514  0.0879557627224585  0.9678707050206512   T   T   T
  0.6666612270744423  0.0879468475478831  0.4678703963412971   T   T   T
  0.6666625725497113  0.0879558745001390  0.9678707845919234   T   T   T
  0.0951421860005652  0.0834323537888366  0.3146133102383999   T   T   T
  0.0951415294726701  0.0834319531471905  0.8146130896057002   T   T   T
  0.5951405306086670  0.0834322005266372  0.3146123758833284   T   T   T
  0.5951416339575175  0.0834350975450633  0.8146055150515750   T   T   T
  0.0833526345202387  0.0829293073163413  0.0629804986569340   T   T   T
  0.0833529794115648  0.0829299912257042  0.5629804822851199   T   T   T
  0.5833522773349316  0.0829296310197591  0.0629803668918427   T   T   T
  0.5833522791052559  0.0829250335340816  0.5629805312294849   T   T   T
  0.4048604959040460  0.0838362453829120  0.0932982120811872   T   T   T
  0.4048591584242303  0.0838363982760768  0.5932982722003999   T   T   T
  0.9048613078847652  0.0838360185819056  0.0932974461031435   T   T   T
  0.9048624218214343  0.0838353078346188  0.5932978606157704   T   T   T
  0.4048833278687454  0.0838433046770675  0.3433297159766582   T   T   T
  0.4048843593378209  0.0838431328325697  0.8433306783532259   T   T   T
  0.9048857537296229  0.0838419764308114  0.3433209357531197   T   T   T
  0.9048852105385237  0.0838423640227859  0.8433217413375189   T   T   T
  0.1432360010426805  0.0920462296687390  0.2181665456670672   T   T   T
  0.1432363491743018  0.0920461215769421  0.7181657763892062   T   T   T
  0.6432383151811436  0.0920457091753590  0.2181687830745602   T   T   T
  0.6444484288960695  0.0923917974332653  0.7179899512955998   T   T   T
  0.6003921312054743  0.3738219818807309  0.4991445291410628   T   T   T
 
  0.00000000E+00  0.00000000E+00  0.00000000E+00
  0.00000000E+00  0.00000000E+00  0.00000000E+00
  0.00000000E+00  0.00000000E+00  0.00000000E+00
  0.00000000E+00  0.00000000E+00  0.00000000E+00
  0.00000000E+00  0.00000000E+00  0.00000000E+00
  0.00000000E+00  0.00000000E+00  0.00000000E+00
  0.00000000E+00  0.00000000E+00  0.00000000E+00
  0.00000000E+00  0.00000000E+00  0.00000000E+00
  0.00000000E+00  0.00000000E+00  0.00000000E+00
  0.00000000E+00  0.00000000E+00  0.00000000E+00
  0.00000000E+00  0.00000000E+00  0.00000000E+00
  0.00000000E+00  0.00000000E+00  0.00000000E+00
  0.00000000E+00  0.00000000E+00  0.00000000E+00
  0.00000000E+00  0.00000000E+00  0.00000000E+00
  0.00000000E+00  0.00000000E+00  0.00000000E+00
  0.00000000E+00  0.00000000E+00  0.00000000E+00
  0.00000000E+00  0.00000000E+00  0.00000000E+00
  0.00000000E+00  0.00000000E+00  0.00000000E+00
  0.00000000E+00  0.00000000E+00  0.00000000E+00
  0.00000000E+00  0.00000000E+00  0.00000000E+00
  0.00000000E+00  0.00000000E+00  0.00000000E+00
  0.00000000E+00  0.00000000E+00  0.00000000E+00
  0.00000000E+00  0.00000000E+00  0.00000000E+00
  0.00000000E+00  0.00000000E+00  0.00000000E+00
  0.00000000E+00  0.00000000E+00  0.00000000E+00
  0.00000000E+00  0.00000000E+00  0.00000000E+00
  0.00000000E+00  0.00000000E+00  0.00000000E+00
  0.00000000E+00  0.00000000E+00  0.00000000E+00
  0.00000000E+00  0.00000000E+00  0.00000000E+00
  0.00000000E+00  0.00000000E+00  0.00000000E+00
  0.00000000E+00  0.00000000E+00  0.00000000E+00
  0.00000000E+00  0.00000000E+00  0.00000000E+00
  0.00000000E+00  0.00000000E+00  0.00000000E+00
  0.00000000E+00  0.00000000E+00  0.00000000E+00
  0.00000000E+00  0.00000000E+00  0.00000000E+00
  0.00000000E+00  0.00000000E+00  0.00000000E+00
  0.00000000E+00  0.00000000E+00  0.00000000E+00
  0.00000000E+00  0.00000000E+00  0.00000000E+00
  0.00000000E+00  0.00000000E+00  0.00000000E+00
  0.00000000E+00  0.00000000E+00  0.00000000E+00
  0.00000000E+00  0.00000000E+00  0.00000000E+00
  0.00000000E+00  0.00000000E+00  0.00000000E+00
  0.00000000E+00  0.00000000E+00  0.00000000E+00
  0.00000000E+00  0.00000000E+00  0.00000000E+00
  0.00000000E+00  0.00000000E+00  0.00000000E+00
  0.00000000E+00  0.00000000E+00  0.00000000E+00
  0.00000000E+00  0.00000000E+00  0.00000000E+00
  0.00000000E+00  0.00000000E+00  0.00000000E+00
  0.00000000E+00  0.00000000E+00  0.00000000E+00
  0.00000000E+00  0.00000000E+00  0.00000000E+00
  0.00000000E+00  0.00000000E+00  0.00000000E+00
  0.00000000E+00  0.00000000E+00  0.00000000E+00
  0.00000000E+00  0.00000000E+00  0.00000000E+00
  0.00000000E+00  0.00000000E+00  0.00000000E+00
  0.00000000E+00  0.00000000E+00  0.00000000E+00
  0.00000000E+00  0.00000000E+00  0.00000000E+00
  0.00000000E+00  0.00000000E+00  0.00000000E+00
  0.00000000E+00  0.00000000E+00  0.00000000E+00
  0.00000000E+00  0.00000000E+00  0.00000000E+00
  0.00000000E+00  0.00000000E+00  0.00000000E+00
  0.00000000E+00  0.00000000E+00  0.00000000E+00
  0.00000000E+00  0.00000000E+00  0.00000000E+00
  0.00000000E+00  0.00000000E+00  0.00000000E+00
  0.00000000E+00  0.00000000E+00  0.00000000E+00
  0.00000000E+00  0.00000000E+00  0.00000000E+00
  0.00000000E+00  0.00000000E+00  0.00000000E+00
  0.00000000E+00  0.00000000E+00  0.00000000E+00
  0.00000000E+00  0.00000000E+00  0.00000000E+00
  0.00000000E+00  0.00000000E+00  0.00000000E+00
  0.00000000E+00  0.00000000E+00  0.00000000E+00
  0.00000000E+00  0.00000000E+00  0.00000000E+00
  0.00000000E+00  0.00000000E+00  0.00000000E+00
  0.00000000E+00  0.00000000E+00  0.00000000E+00
  0.00000000E+00  0.00000000E+00  0.00000000E+00
  0.00000000E+00  0.00000000E+00  0.00000000E+00
  0.00000000E+00  0.00000000E+00  0.00000000E+00
  0.00000000E+00  0.00000000E+00  0.00000000E+00
  0.00000000E+00  0.00000000E+00  0.00000000E+00
  0.00000000E+00  0.00000000E+00  0.00000000E+00
  0.00000000E+00  0.00000000E+00  0.00000000E+00
  0.00000000E+00  0.00000000E+00  0.00000000E+00
  0.00000000E+00  0.00000000E+00  0.00000000E+00
  0.00000000E+00  0.00000000E+00  0.00000000E+00
  0.00000000E+00  0.00000000E+00  0.00000000E+00
  0.00000000E+00  0.00000000E+00  0.00000000E+00
  0.00000000E+00  0.00000000E+00  0.00000000E+00
  0.00000000E+00  0.00000000E+00  0.00000000E+00
  0.00000000E+00  0.00000000E+00  0.00000000E+00
  0.00000000E+00  0.00000000E+00  0.00000000E+00
  0.00000000E+00  0.00000000E+00  0.00000000E+00
  0.00000000E+00  0.00000000E+00  0.00000000E+00
  0.00000000E+00  0.00000000E+00  0.00000000E+00
  0.00000000E+00  0.00000000E+00  0.00000000E+00
  0.00000000E+00  0.00000000E+00  0.00000000E+00
  0.00000000E+00  0.00000000E+00  0.00000000E+00
  0.00000000E+00  0.00000000E+00  0.00000000E+00
  0.00000000E+00  0.00000000E+00  0.00000000E+00
  0.00000000E+00  0.00000000E+00  0.00000000E+00
  0.00000000E+00  0.00000000E+00  0.00000000E+00
  0.00000000E+00  0.00000000E+00  0.00000000E+00
  0.00000000E+00  0.00000000E+00  0.00000000E+00
  0.00000000E+00  0.00000000E+00  0.00000000E+00
  0.00000000E+00  0.00000000E+00  0.00000000E+00
  0.00000000E+00  0.00000000E+00  0.00000000E+00
  0.00000000E+00  0.00000000E+00  0.00000000E+00
  0.00000000E+00  0.00000000E+00  0.00000000E+00
  0.00000000E+00  0.00000000E+00  0.00000000E+00
  0.00000000E+00  0.00000000E+00  0.00000000E+00
  0.00000000E+00  0.00000000E+00  0.00000000E+00
  0.00000000E+00  0.00000000E+00  0.00000000E+00
  0.00000000E+00  0.00000000E+00  0.00000000E+00
  0.00000000E+00  0.00000000E+00  0.00000000E+00
  0.00000000E+00  0.00000000E+00  0.00000000E+00
  0.00000000E+00  0.00000000E+00  0.00000000E+00
  0.00000000E+00  0.00000000E+00  0.00000000E+00
  0.00000000E+00  0.00000000E+00  0.00000000E+00
  0.00000000E+00  0.00000000E+00  0.00000000E+00
  0.00000000E+00  0.00000000E+00  0.00000000E+00
  0.00000000E+00  0.00000000E+00  0.00000000E+00
  0.00000000E+00  0.00000000E+00  0.00000000E+00
  0.00000000E+00  0.00000000E+00  0.00000000E+00
  0.00000000E+00  0.00000000E+00  0.00000000E+00
  0.00000000E+00  0.00000000E+00  0.00000000E+00
  0.00000000E+00  0.00000000E+00  0.00000000E+00
  0.00000000E+00  0.00000000E+00  0.00000000E+00
  0.00000000E+00  0.00000000E+00  0.00000000E+00
  0.00000000E+00  0.00000000E+00  0.00000000E+00
  0.00000000E+00  0.00000000E+00  0.00000000E+00
  0.00000000E+00  0.00000000E+00  0.00000000E+00
  0.00000000E+00  0.00000000E+00  0.00000000E+00
  0.00000000E+00  0.00000000E+00  0.00000000E+00
  0.00000000E+00  0.00000000E+00  0.00000000E+00
  0.00000000E+00  0.00000000E+00  0.00000000E+00
  0.00000000E+00  0.00000000E+00  0.00000000E+00
  0.00000000E+00  0.00000000E+00  0.00000000E+00
  0.00000000E+00  0.00000000E+00  0.00000000E+00
  0.00000000E+00  0.00000000E+00  0.00000000E+00
  0.00000000E+00  0.00000000E+00  0.00000000E+00
  0.00000000E+00  0.00000000E+00  0.00000000E+00
  0.00000000E+00  0.00000000E+00  0.00000000E+00
  0.00000000E+00  0.00000000E+00  0.00000000E+00
  0.00000000E+00  0.00000000E+00  0.00000000E+00
  0.00000000E+00  0.00000000E+00  0.00000000E+00
  0.00000000E+00  0.00000000E+00  0.00000000E+00
  0.00000000E+00  0.00000000E+00  0.00000000E+00
  0.00000000E+00  0.00000000E+00  0.00000000E+00
  0.00000000E+00  0.00000000E+00  0.00000000E+00
  0.00000000E+00  0.00000000E+00  0.00000000E+00
  0.00000000E+00  0.00000000E+00  0.00000000E+00
  0.00000000E+00  0.00000000E+00  0.00000000E+00
  0.00000000E+00  0.00000000E+00  0.00000000E+00
  0.00000000E+00  0.00000000E+00  0.00000000E+00
  0.00000000E+00  0.00000000E+00  0.00000000E+00
  0.00000000E+00  0.00000000E+00  0.00000000E+00
  0.00000000E+00  0.00000000E+00  0.00000000E+00
  0.00000000E+00  0.00000000E+00  0.00000000E+00
  0.00000000E+00  0.00000000E+00  0.00000000E+00
  0.00000000E+00  0.00000000E+00  0.00000000E+00
  0.00000000E+00  0.00000000E+00  0.00000000E+00
  0.00000000E+00  0.00000000E+00  0.00000000E+00
  0.00000000E+00  0.00000000E+00  0.00000000E+00
  0.00000000E+00  0.00000000E+00  0.00000000E+00
  0.00000000E+00  0.00000000E+00  0.00000000E+00
  0.00000000E+00  0.00000000E+00  0.00000000E+00
  0.00000000E+00  0.00000000E+00  0.00000000E+00
  0.00000000E+00  0.00000000E+00  0.00000000E+00
  0.00000000E+00  0.00000000E+00  0.00000000E+00
  0.00000000E+00  0.00000000E+00  0.00000000E+00
  0.00000000E+00  0.00000000E+00  0.00000000E+00
  0.00000000E+00  0.00000000E+00  0.00000000E+00
  0.00000000E+00  0.00000000E+00  0.00000000E+00
  0.00000000E+00  0.00000000E+00  0.00000000E+00
  0.00000000E+00  0.00000000E+00  0.00000000E+00
  0.00000000E+00  0.00000000E+00  0.00000000E+00
  0.00000000E+00  0.00000000E+00  0.00000000E+00
  0.00000000E+00  0.00000000E+00  0.00000000E+00
  0.00000000E+00  0.00000000E+00  0.00000000E+00
  0.00000000E+00  0.00000000E+00  0.00000000E+00
  0.00000000E+00  0.00000000E+00  0.00000000E+00
  0.00000000E+00  0.00000000E+00  0.00000000E+00
  0.00000000E+00  0.00000000E+00  0.00000000E+00
  0.00000000E+00  0.00000000E+00  0.00000000E+00
  0.00000000E+00  0.00000000E+00  0.00000000E+00
  0.00000000E+00  0.00000000E+00  0.00000000E+00
  0.00000000E+00  0.00000000E+00  0.00000000E+00
  0.00000000E+00  0.00000000E+00  0.00000000E+00
  0.00000000E+00  0.00000000E+00  0.00000000E+00
  0.00000000E+00  0.00000000E+00  0.00000000E+00
  0.00000000E+00  0.00000000E+00  0.00000000E+00
  0.00000000E+00  0.00000000E+00  0.00000000E+00
  0.00000000E+00  0.00000000E+00  0.00000000E+00
  0.00000000E+00  0.00000000E+00  0.00000000E+00
  0.00000000E+00  0.00000000E+00  0.00000000E+00
  0.00000000E+00  0.00000000E+00  0.00000000E+00
  0.00000000E+00  0.00000000E+00  0.00000000E+00
  0.00000000E+00  0.00000000E+00  0.00000000E+00
  0.00000000E+00  0.00000000E+00  0.00000000E+00
  0.00000000E+00  0.00000000E+00  0.00000000E+00
  0.00000000E+00  0.00000000E+00  0.00000000E+00
  0.00000000E+00  0.00000000E+00  0.00000000E+00
  0.00000000E+00  0.00000000E+00  0.00000000E+00
  0.00000000E+00  0.00000000E+00  0.00000000E+00
  0.00000000E+00  0.00000000E+00  0.00000000E+00
  0.00000000E+00  0.00000000E+00  0.00000000E+00
  0.00000000E+00  0.00000000E+00  0.00000000E+00
  0.00000000E+00  0.00000000E+00  0.00000000E+00
  0.00000000E+00  0.00000000E+00  0.00000000E+00
  0.00000000E+00  0.00000000E+00  0.00000000E+00
  0.00000000E+00  0.00000000E+00  0.00000000E+00
  0.00000000E+00  0.00000000E+00  0.00000000E+00
  0.00000000E+00  0.00000000E+00  0.00000000E+00
  0.00000000E+00  0.00000000E+00  0.00000000E+00
  0.00000000E+00  0.00000000E+00  0.00000000E+00
  0.00000000E+00  0.00000000E+00  0.00000000E+00
  0.00000000E+00  0.00000000E+00  0.00000000E+00
  0.00000000E+00  0.00000000E+00  0.00000000E+00
  0.00000000E+00  0.00000000E+00  0.00000000E+00
  0.00000000E+00  0.00000000E+00  0.00000000E+00
  0.00000000E+00  0.00000000E+00  0.00000000E+00
  0.00000000E+00  0.00000000E+00  0.00000000E+00
  0.00000000E+00  0.00000000E+00  0.00000000E+00
  0.00000000E+00  0.00000000E+00  0.00000000E+00
  0.00000000E+00  0.00000000E+00  0.00000000E+00
  0.00000000E+00  0.00000000E+00  0.00000000E+00
  0.00000000E+00  0.00000000E+00  0.00000000E+00
  0.00000000E+00  0.00000000E+00  0.00000000E+00
  0.00000000E+00  0.00000000E+00  0.00000000E+00
  0.00000000E+00  0.00000000E+00  0.00000000E+00
  0.00000000E+00  0.00000000E+00  0.00000000E+00
  0.00000000E+00  0.00000000E+00  0.00000000E+00
  0.00000000E+00  0.00000000E+00  0.00000000E+00
  0.00000000E+00  0.00000000E+00  0.00000000E+00
