C H N O S                               
   1.00000000000000     
    17.0814999999999984    0.0000000000000000    0.0000000000000000
     0.0000000000000000   20.0000000000000000    0.0000000000000000
     0.0000000000000000    0.0000000000000000   19.7743000000000002
   C    H    N    O    S 
   129    28     2    38     1
Selective dynamics
Direct
  0.1095499437440498  0.1050586305906982  0.0348254255900766   T   T   T
  0.1162672486682995  0.0921549762232581  0.2958778445935705   T   T   T
  0.1092620210829270  0.1093192865034824  0.5336617975518869   T   T   T
  0.1274088461924284  0.0807344735150212  0.7909276990506515   T   T   T
  0.6238097569759653  0.0796772990620649  0.0393059535527746   T   T   T
  0.6171968654141827  0.0823200253464616  0.2958745698552513   T   T   T
  0.6048185588322840  0.0902075459838271  0.5359810424282566   T   T   T
  0.5997253418490736  0.0608917186554371  0.8047818460804450   T   T   T
  0.0982680897408335  0.0881562244184640  0.1565994437795479   T   T   T
  0.1149702310823806  0.1289205973312789  0.4164094736346303   T   T   T
  0.0987185085682032  0.0961623067531940  0.6531220967766265   T   T   T
  0.0959585029407325  0.0853618183243603  0.9221368802026164   T   T   T
  0.6010550881906892  0.0896479339498659  0.1676043913162208   T   T   T
  0.6119268225762616  0.1337932476077326  0.4174485348504931   T   T   T
  0.5908259843733850  0.0751151256667971  0.6613592469857216   T   T   T
  0.6131040345500012  0.1339347225502572  0.9156020366816414   T   T   T
  0.3544509234849357  0.1213321676881764  0.0453597965290000   T   T   T
  0.3565919230962691  0.1038120491461600  0.2876052155988669   T   T   T
  0.3657374851796161  0.0988783646498106  0.5365743876454306   T   T   T
  0.3433071378999608  0.1403812803971374  0.7968198338615011   T   T   T
  0.8479645745835273  0.0980492606552397  0.0426137818563582   T   T   T
  0.8525773251918949  0.1021042048830475  0.2944381341329663   T   T   T
  0.8429573346757550  0.1016033504583155  0.5420779822952336   T   T   T
  0.8478534448515938  0.0980336738480038  0.7917926167122307   T   T   T
  0.3714733513979721  0.1150704318770689  0.1626111009013418   T   T   T
  0.3652711851635720  0.1291604724508985  0.4059521387962718   T   T   T
  0.3399147266679614  0.0900944785369059  0.6442724956954443   T   T   T
  0.3680736862355523  0.1044248963964473  0.9170331189627438   T   T   T
  0.8585257941384133  0.0961806004186253  0.1637689735694300   T   T   T
  0.8704113125185033  0.1085989352658073  0.4137940273663608   T   T   T
  0.8487350786174394  0.0912921781844959  0.6630258798809813   T   T   T
  0.8706840767187290  0.0962298790161935  0.9128944053569295   T   T   T
  0.1934398307434536  0.1214284478232540  0.0349054863941154   T   T   T
  0.1965992428037015  0.1214183397579093  0.2865374966937737   T   T   T
  0.1936175382910383  0.1607090307885811  0.5348632085845183   T   T   T
  0.1979491550348946  0.1235205337233013  0.7966547949784815   T   T   T
  0.6990070012612416  0.1195547953096344  0.0419569183298754   T   T   T
  0.6954132433013360  0.1186661034608757  0.2920430926831907   T   T   T
  0.6893941450077604  0.1178814706892011  0.5337736034461761   T   T   T
  0.7049020070327525  0.1449652953459428  0.7901091799491500   T   T   T
  0.1749940748010963  0.1294482711105143  0.1557121305969266   T   T   T
  0.1973893743864550  0.1156586863579279  0.4177896758471773   T   T   T
  0.1742651199106618  0.1403762089709055  0.6571500939659887   T   T   T
  0.1853132471325423  0.0980727655484141  0.9169359028213949   T   T   T
  0.6752957644926572  0.1331856767528699  0.1657333662743817   T   T   T
  0.6923680662672212  0.1399159795189465  0.4151957625725238   T   T   T
  0.6739625084185003  0.1301279187884928  0.6559947643391402   T   T   T
  0.6981069545764214  0.1667719432566024  0.9119174081900847   T   T   T
  0.4454501415150681  0.0961096523046883  0.0445346291786024   T   T   T
  0.4403647322629135  0.1183789606504074  0.2920361641331383   T   T   T
  0.4333647959155582  0.1484616300141978  0.5343121443106342   T   T   T
  0.4346386931044155  0.1335213810391273  0.7965211927584770   T   T   T
  0.9327075251878530  0.0975308130993147  0.0431331877079849   T   T   T
  0.9361619521617093  0.1019664631632907  0.2970620368518535   T   T   T
  0.9177356072187792  0.0936722589741312  0.5452064906840625   T   T   T
  0.9398782242283303  0.0950117310089961  0.7933502505169282   T   T   T
  0.4463712069096838  0.1691993679500897  0.1677764963360704   T   T   T
  0.4515478606478064  0.1275432976670014  0.4088906769659781   T   T   T
  0.4217700832761488  0.1494522890400833  0.6514988720202954   T   T   T
  0.4517611741157311  0.1328683879869957  0.9228134238595955   T   T   T
  0.9336329980461565  0.1517860653105518  0.1667979176863522   T   T   T
  0.9526884814408012  0.1270127962124128  0.4196001995731999   T   T   T
  0.9349375290777218  0.1567253455805779  0.6645403127603748   T   T   T
  0.9382628523063202  0.1449811031243544  0.9186098755200020   T   T   T
  0.2305096800619010  0.0969340218457017  0.0992144141735347   T   T   T
  0.2357396692576178  0.0830362463628668  0.3717524026998652   T   T   T
  0.2251142944646581  0.1511632482136369  0.5955760784066064   T   T   T
  0.2373154743032836  0.1224859688951764  0.8698876925859887   T   T   T
  0.7159373156074960  0.1346960693466640  0.1098219234776159   T   T   T
  0.7439548690432670  0.1262780002787059  0.3571473527840096   T   T   T
  0.7159058924413204  0.1484650491752974  0.5940068601483154   T   T   T
  0.7420651668049911  0.1355489584509124  0.8563484900280953   T   T   T
  0.2398988770392139  0.1196700892894072  0.2224817591192986   T   T   T
  0.2413399622702992  0.1248408920140186  0.4844774108605795   T   T   T
  0.2220131214032615  0.1233859368488207  0.7198458086087239   T   T   T
  0.2380534660895035  0.1189265274148986  0.9750030931338821   T   T   T
  0.7256638538857335  0.1380713070367886  0.2239037748439609   T   T   T
  0.7309672436026350  0.1172289767940054  0.4754502553745811   T   T   T
  0.7193639024946163  0.1325061400131773  0.7201447969595542   T   T   T
  0.7428406960879824  0.1462122796500592  0.9775748942852680   T   T   T
  0.4984328429031775  0.1272310411502681  0.0886289047443902   T   T   T
  0.4791164144463616  0.1026604649435015  0.3505282517322623   T   T   T
  0.4753309368736338  0.1372244677426852  0.5931387218704967   T   T   T
  0.4899882853157694  0.1213247931633282  0.8572217655293483   T   T   T
  0.9791109468566428  0.1265029456040552  0.0920838110822042   T   T   T
  0.9985615430169422  0.1162600949902325  0.3588790595144900   T   T   T
  0.9779088167902191  0.1269425932501441  0.5707068307340081   T   T   T
  0.9961067559471978  0.1255671356724261  0.8527745217603900   T   T   T
  0.4963010023265900  0.1462718952113420  0.2392098499300547   T   T   T
  0.4767843998066336  0.1372918748848133  0.4768279126424841   T   T   T
  0.4701213491441146  0.1248174292289929  0.7279936313605644   T   T   T
  0.4912310152657897  0.0980125934432868  0.9779552567623183   T   T   T
  0.9785370916610776  0.1283080303975580  0.2320468432895031   T   T   T
  0.9878572025782476  0.1435784480828857  0.4815229624598044   T   T   T
  0.9877648529916471  0.1248389762065040  0.7312707295828869   T   T   T
  0.9761881538672705  0.1461214740426197  0.9927765033703672   T   T   T
  0.0548186022021769  0.0858689923276200  0.0903708624298957   T   T   T
  0.0690829594704997  0.1015650876315855  0.3656602789248561   T   T   T
  0.0549474514725937  0.0965730086857383  0.5876284555632565   T   T   T
  0.0668926100156782  0.0957448831279568  0.8541571603576652   T   T   T
  0.5598639554126712  0.0872684865891613  0.1024972137660035   T   T   T
  0.5665881865176043  0.0858689130414529  0.3663336503379870   T   T   T
  0.5507674052297791  0.0887763334185780  0.5958395238678056   T   T   T
  0.5736795230131061  0.1069019619696823  0.8606564899114230   T   T   T
  0.0469822975952361  0.1188688768394432  0.2223179292165411   T   T   T
  0.0723745826853360  0.1502542668349639  0.4786742553502004   T   T   T
  0.0562778084928729  0.1133992454105455  0.7194618850499042   T   T   T
  0.0696220046397673  0.1450943754838941  0.9803130579121353   T   T   T
  0.5630216116619642  0.1084613952345957  0.2355100032843928   T   T   T
  0.5629689169446586  0.1250684302108666  0.4853035585951379   T   T   T
  0.5499354227224043  0.0997192342512453  0.7264299834560430   T   T   T
  0.5776530131235950  0.1065187146895467  0.9787874234653346   T   T   T
  0.3139463479130314  0.1202197838274590  0.1093419059361867   T   T   T
  0.3186635550530537  0.0882284567989726  0.3567181901780829   T   T   T
  0.3183151488403381  0.0681701955392546  0.5784566651931483   T   T   T
  0.3122133696479539  0.1152828061850793  0.8620787270295578   T   T   T
  0.8056420198060669  0.1322209809016387  0.1057175026463437   T   T   T
  0.8154266886395745  0.1066344116348971  0.3588414180726380   T   T   T
  0.7988061876806269  0.1255324428690792  0.6011724123405184   T   T   T
  0.8129535050117765  0.1098680223568548  0.8560178593268646   T   T   T
  0.3224486845478117  0.1088676416948567  0.2241676440370793   T   T   T
  0.3276330645561210  0.1153093843815877  0.4730775639474903   T   T   T
  0.2949705953824529  0.1040084104742668  0.7069338825600615   T   T   T
  0.3224297838100613  0.1095859025029812  0.9789846140052266   T   T   T
  0.8018030280991217  0.1130080909362832  0.2254171009151621   T   T   T
  0.8209291785235161  0.1187161430977074  0.4757716600650068   T   T   T
  0.7998144134744336  0.1100087289935946  0.7238648354429813   T   T   T
  0.8162883833577778  0.1144125280857361  0.9776849660188177   T   T   T
  0.5002710755576211  0.3184864659007646  0.4894309880618298   T   T   T
  0.0417310810747146  0.2463765870896616  0.5403442342453078   T   T   T
  0.0725449439076767  0.2326728106757169  0.9156233713158946   T   T   T
  0.2015766309037568  0.2253817524407444  0.1581756607373470   T   T   T
  0.1644872279129365  0.2391833312749728  0.6414264247824641   T   T   T
  0.6535980985942290  0.2502015427416450  0.4500778561913880   T   T   T
  0.6594800441714258  0.2620361032406092  0.8791417064113102   T   T   T
  0.5207547066838369  0.0018252235759912  0.9163591837702090   T   T   T
  0.1168398921986224  0.0209952976032114  0.2118265132142957   T   T   T
  0.1053460734830414  0.0014942880927790  0.6921528418329180   T   T   T
  0.0037576387157607  0.0325864960660995  0.9116785212680513   T   T   T
  0.5224733470292594  0.0204197469842294  0.1792693204313213   T   T   T
  0.5442207241502577  0.0068509356103519  0.4316808254028269   T   T   T
  0.5328271638045529 -0.0002414411993426  0.6651453052326345   T   T   T
  0.3043621622540032 -0.0093563609285234  0.4465338064545749   T   T   T
  0.3701312179005701 -0.0130550489563702  0.6466613440086062   T   T   T
  0.8394482219818405  0.0043272017627073  0.1782228688786858   T   T   T
  0.8404905790133419  0.0042837356373540  0.6836408106092103   T   T   T
  0.8564374248575830  0.0022769335178287  0.9516044103289789   T   T   T
  0.4117678896964612  0.2609789358714286  0.1267138770738369   T   T   T
  0.3666672467432802  0.2171164638427061  0.7042909191053491   T   T   T
  0.4045633496562263  0.2327524874046868  0.9264174063024048   T   T   T
  0.8715885400820809  0.2270333993962275  0.1282139593349153   T   T   T
  0.8788120852395855  0.2418941635243005  0.6357190128809137   T   T   T
  0.8660497575517807  0.2403605025218188  0.9451040602490002   T   T   T
  0.3945177248782079  0.3291232555832774  0.4456688511082866   T   T   T
  0.4647026269310152  0.3220184004465364  0.3749769154826695   T   T   T
  0.4001155633562874  0.3213962184945274  0.5562814955200537   F   F   F
  0.5058074716744161  0.2958419052554826  0.5887907467095026   T   T   T
  0.4497297241938931  0.3135396857457606  0.4275559868140360   T   T   T
  0.4674584139383003  0.3149533167042890  0.5522573412710486   T   T   T
  0.3110915802097581  0.1967988691112547  0.0436677086827674   T   T   T
  0.3140372660349512  0.2037575257068958  0.7712891412635797   T   T   T
  0.8049341749830206  0.2028350503290008  0.0774944456244437   T   T   T
  0.7997686447398613  0.2054303389479889  0.5720394669829908   T   T   T
  0.2204450844113615  0.0374462142491352  0.0707233495595884   T   T   T
  0.1904704950580253  0.0471470640808092  0.2833031550978626   T   T   T
  0.1912363444291314  0.0451597708142972  0.7688411635840339   T   T   T
  0.6956150306118675  0.0410445974062854  0.0376966023753073   T   T   T
  0.6947890865282215  0.0539569207189846  0.2714507476990859   T   T   T
  0.6717949583912498  0.0353481402224293  0.7926748339998496   T   T   T
  0.4060238762310426  0.0365682122892124  0.1384165596277917   T   T   T
  0.4497766414944369  0.0300812843720195  0.3085731668136206   T   T   T
  0.9289823634400357  0.0287749634869250  0.2959807098606193   T   T   T
  0.9332020576939050  0.0235394408483448  0.7894765013968762   T   T   T
  0.0505609351045136  0.2441617985065590  0.4950406223673617   T   T   T
  0.0829999009589246  0.2133992547234264  0.9743236044836209   T   T   T
  0.1535364816138738  0.1968022645444419  0.1639664599502979   T   T   T
  0.1429047443080976  0.2044239712844259  0.6725106183398013   T   T   T
  0.6623877353224428  0.2160331817863821  0.4090700790617127   T   T   T
  0.7007965528339138  0.2386126661448373  0.9029165481093147   T   T   T
  0.4723312365988176  0.0141708503729491  0.8802939852787313   T   T   T
  0.1230993804090136  0.0280717018093741  0.1643183064603619   T   T   T
  0.1387387968198060  0.0268654532561854  0.6630540634038072   T   T   T
  0.0495070933866320  0.0257826147566247  0.9424942606636550   T   T   T
  0.5752009457892509  0.0121728351920654  0.1597523450404351   T   T   T
  0.5843924203604820  0.0406485860382872  0.4182335684344121   T   T   T
  0.5875342591915104 -0.0027616867690115  0.6540104121342033   T   T   T
  0.3418433656853337  0.0004517328092300  0.4135543705191249   T   T   T
  0.3958329697194914  0.0217809048843206  0.6716328741125344   T   T   T
  0.8810349009592787  0.0278275153821106  0.1561457451902326   T   T   T
  0.8784682681621381  0.0293971573790475  0.6583767130662053   T   T   T
  0.8762931793084755  0.0213546516795221  0.9115305230903514   T   T   T
  0.4275026096088069  0.2340276119610779  0.1676292064153664   T   T   T
  0.3973148565431360  0.2112723293854150  0.6579645853573209   T   T   T
  0.4560416543498207  0.2048807221665802  0.9457352071329995   T   T   T
  0.9130263670567887  0.2142886850307721  0.1652113131390996   T   T   T
  0.9120681892053745  0.2137485502548935  0.6655494661163022   T   T   T
  0.8705668963722227  0.2285087308606356  0.9014411940980682   T   T   T
  0.6057670961837833  0.3188601165463070  0.4985346259794254   T   T   T
 
 -0.18707523E-01  0.40332983E-01  0.28105928E-01
  0.37042396E-02  0.31936608E-01  0.15584616E-02
 -0.30982415E-01  0.42833356E-01  0.24881611E-01
 -0.25693964E-01  0.39538931E-01 -0.52933028E-02
 -0.13393902E-01  0.12176988E-01  0.13580781E-01
  0.11394801E-01  0.27693273E-01 -0.92969313E-02
 -0.37573417E-01  0.16013296E-01 -0.16132640E-02
  0.55985434E-03  0.21380544E-01 -0.81027800E-02
  0.45411023E-01 -0.28978096E-01  0.12069980E-01
  0.16686965E-01  0.21619079E-02 -0.99187136E-02
  0.36484196E-01 -0.45830513E-01  0.14037600E-01
  0.27130248E-01 -0.22181883E-01 -0.14313825E-01
  0.34311008E-01 -0.64130047E-02  0.17698700E-01
  0.23272772E-01  0.69595228E-02 -0.30746901E-01
  0.28231052E-01 -0.13253103E-01  0.14357355E-01
 -0.54928157E-03  0.11042539E-02 -0.18011225E-01
  0.98782347E-03  0.53640312E-02  0.10444746E-01
 -0.10412050E-01  0.15175746E-01 -0.20089591E-01
 -0.21626414E-01  0.15632667E-01  0.89205938E-03
  0.24172613E-01  0.12588731E-01 -0.56203815E-02
 -0.12199609E-02 -0.22475821E-01  0.69250647E-02
  0.19742028E-01 -0.13314412E-01 -0.19675362E-01
  0.89845312E-02 -0.29201499E-02  0.18802738E-02
  0.14186069E-01 -0.13967171E-01 -0.12127427E-01
  0.11012813E-01 -0.98076558E-02  0.44607663E-02
  0.12791332E-01  0.11516796E-01 -0.72068740E-02
  0.41590200E-01 -0.34384813E-01  0.15503955E-01
 -0.20579881E-01  0.64314627E-02 -0.11546162E-01
  0.19635188E-01  0.24822846E-01  0.24471986E-01
 -0.21325690E-01  0.16391895E-01 -0.75344138E-02
  0.85964092E-02  0.16838459E-01  0.84349683E-02
 -0.12913395E-01 -0.10028353E-01 -0.47729667E-02
 -0.16739650E-01 -0.23370998E-01  0.32035936E-01
 -0.14550629E-01 -0.21865515E-01 -0.74532480E-02
  0.29889128E-01 -0.32692873E-01  0.18962241E-01
 -0.39128012E-01 -0.17228381E-01 -0.12791680E-01
 -0.68421197E-02 -0.11197530E-01  0.92268174E-02
 -0.17181189E-01 -0.16705311E-01 -0.10149746E-01
 -0.30251377E-01 -0.97303837E-03  0.12975519E-01
 -0.46956762E-02  0.18977944E-01  0.74680052E-02
  0.37907622E-01  0.10083726E-01  0.22577722E-01
  0.67158733E-02 -0.31978151E-01 -0.28240149E-01
  0.71056287E-02  0.44958020E-01  0.17031005E-01
  0.20373596E-01  0.79572016E-02  0.31065683E-02
 -0.26274452E-02 -0.16072255E-01  0.16867590E-01
  0.42505260E-01  0.45832084E-02 -0.52842400E-02
  0.11087324E-01  0.14642016E-01  0.31167979E-01
  0.11713095E-01  0.19733148E-01 -0.26420436E-01
  0.54013942E-02  0.11872505E-01  0.77246159E-03
 -0.15677560E-01  0.40500722E-02 -0.30813604E-01
 -0.33213214E-02 -0.25714049E-01  0.25004851E-01
  0.30255821E-01  0.24458994E-01  0.30524606E-02
 -0.33904635E-02  0.27312575E-02 -0.52711937E-02
 -0.91071527E-02  0.31148353E-02  0.14524930E-01
  0.92520980E-02 -0.14706230E-01  0.92369788E-02
 -0.17192210E-01  0.44039744E-02 -0.11780121E-01
 -0.11262140E-01  0.63739174E-02  0.80808273E-02
  0.11138880E-01 -0.20336081E-01  0.11733832E-01
  0.24171605E-01  0.19504959E-01  0.12977798E-01
 -0.42991079E-02 -0.53552595E-02 -0.87975338E-02
  0.88673597E-02  0.24891960E-01  0.29714819E-01
  0.55026971E-02  0.77111995E-02 -0.12644998E-01
 -0.67343927E-02  0.85096926E-02  0.38830280E-01
 -0.16941103E-01  0.17102802E-01 -0.39872911E-01
  0.54729978E-02  0.18022526E-02  0.21589829E-02
  0.55378767E-02  0.27345493E-01 -0.22887746E-01
 -0.22988311E-01  0.11250390E-02  0.40224749E-02
  0.18239861E-01 -0.15577833E-01 -0.59567151E-01
  0.16735314E-01  0.20989815E-01 -0.10882185E-01
 -0.25774932E-01 -0.11438506E-02 -0.18330998E-01
 -0.39478615E-02 -0.38520664E-01  0.31370527E-01
 -0.11281342E-01  0.16460884E-02 -0.20941019E-01
  0.26136305E-01  0.82267475E-02  0.19675857E-01
 -0.72504224E-02  0.36790540E-01 -0.50762283E-03
 -0.49626761E-02 -0.73326628E-02  0.15668155E-01
 -0.41515756E-02 -0.32803311E-01  0.23109306E-01
  0.18041013E-01 -0.74858097E-02  0.42339397E-02
 -0.71081856E-02  0.14505237E-01  0.13685493E-01
  0.24090712E-02  0.45979847E-03  0.17737103E-01
 -0.14296368E-01 -0.27909452E-02 -0.87258666E-02
 -0.12937414E-01 -0.54069856E-02  0.29706155E-01
 -0.15660175E-02 -0.10061705E-01 -0.95713640E-02
  0.46240485E-02 -0.19169542E-01  0.44802493E-01
  0.12008216E-01 -0.21540846E-01  0.78140798E-02
  0.40590669E-02 -0.34534408E-01  0.16136112E-01
 -0.14626325E-01 -0.21916334E-01 -0.53086845E-02
  0.66118964E-02 -0.31527058E-01  0.20028983E-01
 -0.28706302E-01 -0.12713265E-01 -0.31518165E-03
 -0.78944461E-02 -0.15033933E-01 -0.11342790E-01
  0.17786068E-01  0.32312457E-01  0.72552177E-02
  0.97393051E-02 -0.20003126E-01 -0.64815717E-02
 -0.15670569E-01  0.24205646E-01  0.43222568E-02
 -0.94567797E-03 -0.21401626E-01  0.16153627E-01
  0.55179539E-02  0.84660498E-02 -0.76067167E-02
 -0.82796661E-02 -0.19642472E-01  0.42236316E-02
 -0.12770992E-01 -0.25672157E-02 -0.38665120E-01
 -0.56766768E-02  0.36389842E-01  0.42542196E-01
  0.54415853E-02  0.40071275E-03 -0.21233855E-01
  0.49720535E-02  0.20819460E-01  0.32802567E-01
  0.44480594E-02  0.45572134E-03 -0.22308831E-02
  0.21691963E-01  0.29076688E-01  0.36107555E-01
 -0.15082433E-01 -0.29621440E-01 -0.16426840E-01
 -0.26657568E-01  0.32795596E-01  0.36537853E-01
 -0.10560053E-01  0.24525538E-02 -0.13279831E-01
  0.21017239E-01 -0.36221218E-01 -0.32512023E-01
  0.11853589E-02  0.74453994E-02 -0.56298255E-02
  0.16652945E-01 -0.23309099E-01 -0.37390763E-01
 -0.71260103E-02 -0.14375598E-01 -0.18618498E-01
  0.10300060E-01 -0.13607775E-01 -0.10808068E-01
  0.48242773E-02  0.14948579E-01 -0.31473080E-01
 -0.39782081E-01 -0.27744697E-01 -0.18225776E-01
  0.15035837E-01 -0.51112022E-01 -0.30771466E-01
 -0.12803016E-02  0.11049577E-01 -0.74818033E-03
  0.19208860E-01 -0.37602825E-02 -0.73120906E-02
  0.16635272E-01  0.75476259E-02  0.36336349E-01
 -0.32342386E-02  0.33047157E-01 -0.44583607E-01
  0.12473964E-01  0.17499406E-01  0.11580308E-01
  0.10458719E-01  0.27222951E-02 -0.27651907E-01
  0.36152958E-01  0.10879241E-01 -0.43537724E-02
  0.21522118E-01  0.25846057E-01 -0.28697058E-01
 -0.76346351E-02 -0.65203922E-02 -0.45083523E-02
 -0.11480076E-01  0.70099551E-03 -0.44385655E-02
  0.17385917E-01  0.28613644E-01 -0.30622395E-01
  0.11484863E-02  0.29630116E-02 -0.53781382E-02
  0.20275768E-01  0.18232618E-01  0.22701199E-02
 -0.76948058E-02 -0.27554054E-01  0.36177395E-02
  0.52178630E-02  0.40872888E-02  0.43244758E-02
  0.76331794E-03  0.84416855E-02  0.14918389E-01
  0.73724191E-02 -0.30757244E-01 -0.16083212E-02
  0.33211732E-01 -0.31860591E-01  0.55551481E-01
  0.17269396E-02  0.69632245E-01 -0.74683355E-01
 -0.10907024E-01  0.16096991E-01  0.46237977E-01
  0.12702500E-01  0.16023972E-01  0.32142265E-01
 -0.66732022E-02  0.43946762E-01 -0.18868193E-01
  0.18126496E-01  0.29004136E-01 -0.32463998E-02
  0.41763703E-01 -0.31517020E-01 -0.27567313E-01
  0.21736274E-02 -0.26794790E-01  0.12255233E-01
 -0.55564916E-01  0.42955854E-01 -0.20496461E-01
  0.15392993E-02 -0.13422961E-02  0.11857379E-02
 -0.66705048E-02  0.20463113E-01 -0.64532939E-01
  0.11636117E-01 -0.31870913E-01 -0.12418873E-01
 -0.35992713E-02  0.10779376E-01 -0.60763253E-02
 -0.42950770E-01  0.23043019E-01  0.22647071E-02
  0.27014281E-02 -0.81326384E-02 -0.49277347E-02
 -0.83976448E-02  0.53525098E-02  0.48657424E-02
  0.19571530E-01 -0.20819282E-01  0.10457604E-01
  0.22947685E-01 -0.63662702E-02  0.28821310E-01
  0.85787893E-02 -0.80766357E-02 -0.11476861E-01
 -0.59775511E-01  0.31052468E-02 -0.27051289E-01
  0.11686113E+00 -0.65316871E-02  0.54191711E-01
 -0.39126104E-01 -0.14118524E-01  0.23370880E-02
 -0.50549265E-01 -0.17451277E-01 -0.17492086E-01
  0.38594844E-03 -0.18314621E-02  0.56084923E-01
  0.26492112E-01 -0.41290301E-01 -0.73458310E-01
  0.66924871E-02  0.58435828E-01  0.32571306E-01
  0.00000000E+00  0.00000000E+00  0.00000000E+00
  0.22589637E-02  0.55438447E-01 -0.53966494E-03
  0.10914783E-01  0.90964658E-02  0.61662715E-02
  0.14744181E-01  0.49106198E-02 -0.31315517E-02
  0.14639071E-01 -0.99094010E-03  0.86857542E-02
  0.34755544E-02 -0.23591007E-01 -0.64427054E-02
 -0.53160686E-02 -0.26122447E-02  0.22888959E-01
 -0.16777046E-01  0.73181980E-02  0.17653616E-01
  0.87966435E-02  0.18441352E-02  0.55403625E-02
 -0.25806125E-01 -0.92165155E-02 -0.36898545E-02
 -0.21857010E-01 -0.19616624E-02  0.93463019E-02
 -0.14788982E-01 -0.45977079E-02 -0.20331543E-01
 -0.33405500E-01 -0.72326492E-02 -0.30713734E-02
 -0.28025309E-01 -0.12681587E-01 -0.47423418E-02
 -0.26979812E-01  0.18028152E-01  0.18044290E-01
  0.10453674E-01 -0.44714141E-02 -0.10978376E-02
 -0.10789834E-01  0.35386134E-02 -0.16413253E-01
 -0.28186578E-02  0.87935874E-02 -0.12336824E-01
  0.22593030E-02  0.37181309E-02  0.78506355E-02
  0.15058069E-01  0.71545504E-03  0.94300769E-02
 -0.76400770E-02  0.12246230E-01 -0.11031409E-01
 -0.18280236E-01  0.12466561E-01 -0.65601736E-03
 -0.17615931E-01  0.23071869E-01  0.60175390E-02
 -0.75818159E-02  0.57563447E-02  0.56195971E-02
 -0.31664871E-02 -0.57495261E-02 -0.25086082E-01
 -0.32622775E-02 -0.24629649E-01  0.80669751E-02
  0.20235799E-02 -0.64636238E-02 -0.13255066E-01
 -0.11314855E-01 -0.59657630E-02  0.20449964E-01
  0.16867298E-02 -0.52391662E-02  0.32751652E-02
 -0.39534154E-02 -0.32442002E-01 -0.12891753E-01
 -0.10180273E-02  0.39077807E-02 -0.26887086E-02
  0.42363847E-03 -0.18772639E-01 -0.21491624E-02
  0.11811852E-01 -0.57796216E-02  0.51804283E-03
  0.97126875E-03  0.65397723E-02 -0.90741270E-02
  0.11177866E-02  0.24253109E-02 -0.10754131E-01
  0.15465570E-01 -0.19247076E-02  0.68495467E-02
  0.64701220E-03 -0.72409034E-03 -0.44639322E-02
 -0.14938191E-01  0.21040818E-02 -0.32671740E-02
 -0.62569395E-02 -0.43380844E-02  0.83473197E-02
 -0.12927389E-01 -0.12220569E-02 -0.66006859E-02
 -0.82392290E-02  0.11946981E-01 -0.63092212E-02
 -0.72043552E-02 -0.46512460E-02 -0.14766241E-02
 -0.10193658E-01  0.72132279E-03 -0.19054295E-02
 
           1
   2.00000000000000     
 -0.87954543E+00  0.48820896E-02  0.47382414E-02 -0.88435560E+00
  0.10735956E+00  0.10909193E+00  0.37668098E-01
  0.11670096E+00  0.95348637E-01  0.29603547E+00
  0.10563442E+00  0.11360262E+00  0.53617836E+00
  0.12440045E+00  0.84688367E-01  0.79039233E+00
  0.62224152E+00  0.80894998E-01  0.40679533E-01
  0.61853103E+00  0.85089353E-01  0.29493427E+00
  0.60041925E+00  0.91808876E-01  0.53581787E+00
  0.59979089E+00  0.63029773E-01  0.80396232E+00
  0.10358507E+00  0.85258415E-01  0.15782022E+00
  0.11692404E+00  0.12913679E+00  0.41540628E+00
  0.10299029E+00  0.91579255E-01  0.65454188E+00
  0.99135068E-01  0.83143630E-01  0.92068916E+00
  0.60507242E+00  0.89006633E-01  0.16939446E+00
  0.61465173E+00  0.13448920E+00  0.41433875E+00
  0.59413144E+00  0.73789815E-01  0.66281137E+00
  0.61303972E+00  0.13404515E+00  0.91378036E+00
  0.35456658E+00  0.12186857E+00  0.46416193E-01
  0.35537282E+00  0.10532962E+00  0.28557333E+00
  0.36320534E+00  0.10044163E+00  0.53666461E+00
  0.34613741E+00  0.14164015E+00  0.79625138E+00
  0.84782173E+00  0.95801679E-01  0.43314192E-01
  0.85488884E+00  0.10077276E+00  0.29244814E+00
  0.84400930E+00  0.10131134E+00  0.54226816E+00
  0.84951443E+00  0.96636957E-01  0.79056603E+00
  0.37276279E+00  0.11408967E+00  0.16306227E+00
  0.36676887E+00  0.13031215E+00  0.40522323E+00
  0.34478435E+00  0.86655997E-01  0.64584059E+00
  0.36566408E+00  0.10506804E+00  0.91586532E+00
  0.86082479E+00  0.98662885E-01  0.16624410E+00
  0.86791438E+00  0.11023812E+00  0.41303199E+00
  0.84974160E+00  0.92976024E-01  0.66387900E+00
  0.86917210E+00  0.95227044E-01  0.91241166E+00
  0.19147986E+00  0.11909135E+00  0.38145645E-01
  0.19489557E+00  0.11923179E+00  0.28578366E+00
  0.19711713E+00  0.15743974E+00  0.53678108E+00
  0.19336782E+00  0.12179770E+00  0.79536103E+00
  0.69820589E+00  0.11843504E+00  0.42890131E-01
  0.69340157E+00  0.11699557E+00  0.29101653E+00
  0.68585214E+00  0.11778417E+00  0.53508597E+00
  0.70435221E+00  0.14686309E+00  0.79086450E+00
  0.17943252E+00  0.13045664E+00  0.15799567E+00
  0.19817571E+00  0.11246087E+00  0.41493343E+00
  0.17509709E+00  0.14487201E+00  0.65887263E+00
  0.18769870E+00  0.98868486E-01  0.91725011E+00
  0.67498813E+00  0.13157845E+00  0.16743938E+00
  0.69734483E+00  0.14037430E+00  0.41466131E+00
  0.67526068E+00  0.13159212E+00  0.65914714E+00
  0.69947839E+00  0.16874526E+00  0.90924521E+00
  0.44608257E+00  0.97296903E-01  0.44612757E-01
  0.43852911E+00  0.11878397E+00  0.28891963E+00
  0.43297592E+00  0.14589023E+00  0.53684117E+00
  0.43818122E+00  0.13596728E+00  0.79682992E+00
  0.93231055E+00  0.97803939E-01  0.42600052E-01
  0.93509563E+00  0.10227795E+00  0.29853111E+00
  0.91881890E+00  0.92201636E-01  0.54614073E+00
  0.93786526E+00  0.95452128E-01  0.79215879E+00
  0.44505257E+00  0.16983676E+00  0.16859380E+00
  0.45285206E+00  0.12550969E+00  0.41007745E+00
  0.42460023E+00  0.15140278E+00  0.65281146E+00
  0.45125781E+00  0.13233286E+00  0.92192363E+00
  0.93467124E+00  0.15427526E+00  0.16980332E+00
  0.95333277E+00  0.12778392E+00  0.41832127E+00
  0.93414903E+00  0.15757631E+00  0.66846766E+00
  0.93627929E+00  0.14669138E+00  0.91457707E+00
  0.23115049E+00  0.97114247E-01  0.99432777E-01
  0.23638808E+00  0.85770796E-01  0.36943750E+00
  0.22242269E+00  0.15127575E+00  0.59598292E+00
  0.23945110E+00  0.12092819E+00  0.86386299E+00
  0.71789678E+00  0.13679505E+00  0.10872128E+00
  0.74093699E+00  0.12616362E+00  0.35529333E+00
  0.71544365E+00  0.14461298E+00  0.59717972E+00
  0.74074428E+00  0.13571357E+00  0.85423049E+00
  0.24295907E+00  0.12049276E+00  0.22447180E+00
  0.24049104E+00  0.12851995E+00  0.48442607E+00
  0.22143206E+00  0.12265267E+00  0.72143051E+00
  0.23756738E+00  0.11564620E+00  0.97734040E+00
  0.72777620E+00  0.13732273E+00  0.22433200E+00
  0.73013498E+00  0.11867950E+00  0.47683443E+00
  0.71964597E+00  0.13255212E+00  0.72193875E+00
  0.74116680E+00  0.14593319E+00  0.97669235E+00
  0.49691806E+00  0.12669034E+00  0.91633426E-01
  0.47893306E+00  0.10165429E+00  0.34956019E+00
  0.47587235E+00  0.13530751E+00  0.59767011E+00
  0.49139428E+00  0.11917071E+00  0.85801209E+00
  0.97958621E+00  0.12304950E+00  0.93715840E-01
  0.99684901E+00  0.11406846E+00  0.35834213E+00
  0.97868298E+00  0.12378989E+00  0.57273259E+00
  0.99274566E+00  0.12429581E+00  0.85274264E+00
  0.49537668E+00  0.14476850E+00  0.23806262E+00
  0.47886689E+00  0.14052312E+00  0.47756172E+00
  0.47126168E+00  0.12281712E+00  0.72733808E+00
  0.48939622E+00  0.10043316E+00  0.97839242E+00
  0.97842637E+00  0.12616787E+00  0.23368064E+00
  0.98850328E+00  0.14442505E+00  0.48075361E+00
  0.98679542E+00  0.12287473E+00  0.73169791E+00
  0.97469285E+00  0.14586475E+00  0.98886586E+00
  0.54153944E-01  0.89507977E-01  0.94673639E-01
  0.69720091E-01  0.10160516E+00  0.36351266E+00
  0.55529608E-01  0.98654955E-01  0.59094615E+00
  0.67413414E-01  0.95790455E-01  0.85393153E+00
  0.56240377E+00  0.90176155E-01  0.10614918E+00
  0.56482225E+00  0.82906769E-01  0.36467222E+00
  0.54764618E+00  0.92055893E-01  0.59953501E+00
  0.57244309E+00  0.10714722E+00  0.85931335E+00
  0.49443116E-01  0.11524676E+00  0.21902962E+00
  0.72513371E-01  0.15099881E+00  0.47810485E+00
  0.58227631E-01  0.11106834E+00  0.71568013E+00
  0.68787650E-01  0.14365682E+00  0.97842996E+00
  0.56422760E+00  0.10710062E+00  0.23441686E+00