C H N O S                               
   1.00000000000000     
    17.0814999999999984    0.0000000000000000    0.0000000000000000
     0.0000000000000000   21.3509999999999991    0.0000000000000000
     0.0000000000000000    0.0000000000000000   19.7240000000000002
   C    H    N    O    S 
   131    39     1    66     1
Selective dynamics
Direct
  0.8946187831269938  0.1939893441709586  0.0623559085984269   T   T   T
  0.8946169177078431  0.1939875795845865  0.5623534218688988   T   T   T
  0.3946196131445205  0.1939878005133053  0.0623569209934871   T   T   T
  0.3946377840769202  0.1938283152552032  0.5623458555580569   T   T   T
  0.8936368084188331  0.1942295951771413  0.3121034690306885   T   T   T
  0.8936374229187649  0.1942284451542662  0.8121042398696190   T   T   T
  0.3936422140226412  0.1942177542536285  0.3121111961460130   T   T   T
  0.3936373456724169  0.1942274678271048  0.8121043958149059   T   T   T
  0.9044701527095000  0.1845021395336772  0.1882086246802501   T   T   T
  0.9044711339763580  0.1845009062409630  0.6882103320112734   T   T   T
  0.4044718393613849  0.1845017962278561  0.1882093576272723   T   T   T
  0.4044596745755911  0.1844980503460576  0.6882075126945750   T   T   T
  0.8943915317945326  0.1849883584087095  0.4383263960875041   T   T   T
  0.8943993886469386  0.1849896530078823  0.9383252078336639   T   T   T
  0.3943377236535355  0.1849547550154398  0.4383050830889061   T   T   T
  0.3943996530510532  0.1849897644885345  0.9383254590653323   T   T   T
  0.6541105725270597  0.1851396121743321  0.0632629507475215   T   T   T
  0.6540689119044458  0.1851592912563405  0.5632701519578234   T   T   T
  0.1541098781894092  0.1851385737535196  0.0632635828446837   T   T   T
  0.1541086270829837  0.1851385657483817  0.5632646573360063   T   T   T
  0.6541517281785474  0.1854259886313585  0.3132334122756504   T   T   T
  0.6541544370156203  0.1854142710175424  0.8132389969625606   T   T   T
  0.1541530982467663  0.1854158012831988  0.3132386898080171   T   T   T
  0.1541542329761398  0.1854148314762867  0.8132390839912205   T   T   T
  0.6540845383307996  0.1942394402202723  0.1879194987947912   T   T   T
  0.6540860120950427  0.1942281799475296  0.6879101849506668   T   T   T
  0.1540828071876277  0.1942408908155073  0.1879150464140906   T   T   T
  0.1540837411986189  0.1942434783481630  0.6879130102210311   T   T   T
  0.6437362588580910  0.1939664773535696  0.4369922512569246   T   T   T
  0.6437565512907995  0.1939641713700766  0.9370173601035461   T   T   T
  0.1437546755191335  0.1939639404758182  0.4370171885470171   T   T   T
  0.1437546197910535  0.1939657822084726  0.9370160122339612   T   T   T
  0.8098285944255537  0.1938358315185766  0.0631320964995936   T   T   T
  0.8098279770348213  0.1938341549567681  0.5631284616735783   T   T   T
  0.3098290284861847  0.1938361416312731  0.0631314968536003   T   T   T
  0.3097601069736271  0.1936563223556504  0.5631331922259690   T   T   T
  0.8097082872119969  0.1897626087338438  0.3134975686939683   T   T   T
  0.8097095908274028  0.1897637416309479  0.8134966766913649   T   T   T
  0.3097128016182324  0.1897611044712733  0.3134966700523805   T   T   T
  0.3097092808256861  0.1897640200753088  0.8134966467181428   T   T   T
  0.8206120585882744  0.1850640842889035  0.1869237754765365   T   T   T
  0.8206094350733437  0.1850585486066976  0.6869200512474976   T   T   T
  0.3206123615572949  0.1850624706458888  0.1869234745412527   T   T   T
  0.3206089715908433  0.1850620031330124  0.6869226155812029   T   T   T
  0.8099365053013585  0.1938157301453103  0.4367902422593275   T   T   T
  0.8099413041886692  0.1938119907727014  0.9367923890963539   T   T   T
  0.3099431596657780  0.1937880411351713  0.4367887699281852   T   T   T
  0.3099410634751152  0.1938123530796005  0.9367922329398510   T   T   T
  0.5701689845594586  0.1944688970788206  0.0619071220495826   T   T   T
  0.5696926461095870  0.1943573523880673  0.5621694203794263   T   T   T
  0.0701685863963917  0.1944701506779012  0.0619066684992262   T   T   T
  0.0701698406090259  0.1944669040405103  0.5619069858377941   T   T   T
  0.5695639622531274  0.1945895590549966  0.3124017014462765   T   T   T
  0.5695640832032964  0.1945902898084384  0.8124127471049860   T   T   T
  0.0695676113104966  0.1945986197764427  0.3124099966473182   T   T   T
  0.0695680169091659  0.1945991068687221  0.8124093184913477   T   T   T
  0.5693472182614983  0.1942784749916697  0.1875583154490030   T   T   T
  0.5693564484775706  0.1942326927567279  0.6875950451013324   T   T   T
  0.0693480500285020  0.1942788344513033  0.1875558349477657   T   T   T
  0.0693486912706547  0.1942796858627460  0.6875544758096339   T   T   T
  0.5595894349681672  0.1853286017285711  0.4371893585084337   T   T   T
  0.5596168678534497  0.1854162708089078  0.9372705228902447   T   T   T
  0.0596173471741679  0.1854158324228408  0.4372691828937150   T   T   T
  0.0596172259845247  0.1854156960911411  0.9372682693010006   T   T   T
  0.7736542262181274  0.1662634184383265  0.1254299982508229   T   T   T
  0.7736415180433340  0.1662646242209149  0.6254247962031556   T   T   T
  0.2736537789537721  0.1662641156593594  0.1254286675671210   T   T   T
  0.2736559857283538  0.1662537537129509  0.6254185714118137   T   T   T
  0.7728389486834999  0.1663578523030651  0.3747480735073339   T   T   T
  0.7728465428719531  0.1663540959906769  0.8747637191701259   T   T   T
  0.2728468067709571  0.1663547735525697  0.3747529107145340   T   T   T
  0.2728460893230533  0.1663548267606387  0.8747624505270011   T   T   T
  0.7735106639355394  0.1848082853462287  0.2493264985092267   T   T   T
  0.7735140615861411  0.1848063988049020  0.7493257750733946   T   T   T
  0.2735128223591659  0.1848082074141004  0.2493258101886724   T   T   T
  0.2735138088257401  0.1848097674467581  0.7493253200885519   T   T   T
  0.7696017736467553  0.1879875878961741  0.0000798827613693   T   T   T
  0.7695883337978842  0.1879941312714166  0.5000816731453455   T   T   T
  0.2696016932425209  0.1879878742232322  0.0000797652064080   T   T   T
  0.2696009589192911  0.1879714587661070  0.5000912532374642   T   T   T
  0.5235373208546577  0.1937268471019067  0.1244301072735610   T   T   T
  0.5233691877307933  0.1929079190681833  0.6249872387314142   T   T   T
  0.0235343993191677  0.1937272090765987  0.1244291423897792   T   T   T
  0.0235339980051492  0.1937268116895794  0.6244287602667882   T   T   T
  0.5198013906840373  0.1879749616498216  0.3746225323767050   T   T   T
  0.5198098642843831  0.1880021262287883  0.8746338415839148   T   T   T
  0.0198075397177817  0.1880022137225836  0.3746328090802393   T   T   T
  0.0198081745038792  0.1880026234633192  0.8746327117165933   T   T   T
  0.5244249953088627  0.1753379538745676  0.2504967376570448   T   T   T
  0.5244174516421225  0.1753435601854108  0.7505013599757433   T   T   T
  0.0244087151800727  0.1753395356544161  0.2504868535027001   T   T   T
  0.0244104630152009  0.1753395874217389  0.7504861472539233   T   T   T
  0.5235791327499584  0.1664209097345974  0.0007929331437779   T   T   T
  0.5235790625558110  0.1664131522825514  0.5007894683443581   T   T   T
  0.0235782466028240  0.1664209576142994  0.0007919395324762   T   T   T
  0.0235752136205463  0.1664212492187360  0.5007923700098829   T   T   T
  0.9404622179608495  0.1671986330104005  0.1242430318549452   T   T   T
  0.9404629959884829  0.1671986584784690  0.6242400467736502   T   T   T
  0.4404624606773737  0.1671986791876563  0.1242435844751597   T   T   T
  0.4404784160352833  0.1671365492008263  0.6242794508506364   T   T   T
  0.9384677044907264  0.1666520442628538  0.3745581627150969   T   T   T
  0.9384695441138078  0.1666527444536072  0.8745579464722155   T   T   T
  0.4384753055655324  0.1666586719574354  0.3745533552651139   T   T   T
  0.4384693397382975  0.1666522821844723  0.8745578075628657   T   T   T
  0.9399162671339738  0.1855238664031660  0.2493468220498087   T   T   T
  0.9399165393540230  0.1855230320086463  0.7493460052668155   T   T   T
  0.4399199231346529  0.1855230630683877  0.2493457978961899   T   T   T
  0.4399177678258468  0.1855244595301357  0.7493474432204721   T   T   T
  0.9390815961692169  0.1848136950303925  0.9991779546024020   T   T   T
  0.9390878187534497  0.1848138441929592  0.4991775262865019   T   T   T
  0.4390816094071610  0.1848137126129643  0.9991778473939306   T   T   T
  0.4391036846014273  0.1847564494719620  0.4991969315548985   T   T   T
  0.6906151278917321  0.1848638539290093  0.1242626573292540   T   T   T
  0.6906110266938086  0.1848601621419519  0.6242550104258910   T   T   T
  0.1906179461414510  0.1848624708251236  0.1242621030556634   T   T   T
  0.1906175984006779  0.1848615273187804  0.6242604556086491   T   T   T
  0.6897935744212589  0.1850123414983500  0.3743179838535013   T   T   T
  0.6897994262218248  0.1850254425870403  0.8743121261057922   T   T   T
  0.1897997422518998  0.1850250156451168  0.3743114821191185   T   T   T
  0.1897997197259969  0.1850252200238529  0.8743115898662168   T   T   T
  0.6901680343835466  0.1663263071862389  0.2495381190245496   T   T   T
  0.6901774870994544  0.1663263922404710  0.7495226909710624   T   T   T
  0.1901749281618592  0.1663243042424867  0.2495245306812777   T   T   T
  0.1901747676646934  0.1663244300826960  0.7495227819252293   T   T   T
  0.6896414102300881  0.1665645289324331  0.9993509569535703   T   T   T
  0.6896276802230616  0.1665748467577615  0.4993500472328307   T   T   T
  0.1896425951977605  0.1665643108854198  0.9993498493512192   T   T   T
  0.1896402548286389  0.1665679744283324  0.4993496807601616   T   T   T
  0.4994242517381409  0.3789099192662277  0.4887323888203170   T   T   T
  0.4166428220821388  0.3432562736536795  0.4991651931107342   T   T   T
  0.5591672415934852  0.3582320223968978  0.5376585602487012   T   T   T
  0.6337040240013607  0.0896990155460244  0.4924366882924289   T   T   T
  0.6337033266238805  0.0896869799149869  0.9924650632246639   T   T   T
  0.1337029286390390  0.0896877945217156  0.4924658077781103   T   T   T
  0.1337032831262235  0.0896872339690873  0.9924629580248521   T   T   T
  0.7400621607197309  0.0817277779915031  0.4032905735606178   T   T   T
  0.7400702121631824  0.0817233160618827  0.9032902433673513   T   T   T
  0.2400742447696373  0.0817255661942937  0.4032915412914093   T   T   T
  0.2400708910380303  0.0817234748304188  0.9032901472186765   T   T   T
  0.7288586477002283  0.0848069595597849  0.1538244984230559   T   T   T
  0.7288604590054817  0.0848193613339134  0.6537895526161250   T   T   T
  0.2288613943030668  0.0848122370150364  0.1538098066964722   T   T   T
  0.2288611674166177  0.0848104934990275  0.6538093390760977   T   T   T
  0.5018481873290739  0.0909766193453621  0.2886971846215047   T   T   T
  0.5018455834175199  0.0909731094170212  0.7886945291012495   T   T   T
  0.0018459533514701  0.0909695332813030  0.2886949872572444   T   T   T
  0.0018455526967500  0.0909723801336924  0.7886947581922499   T   T   T
  0.4966753008989357  0.0890823669336385  0.0487382453671614   T   T   T
  0.4966799918726679  0.0890786019060528  0.5487380595543172   T   T   T
  0.9966745921192839  0.0890824825128860  0.0487377063396934   T   T   T
  0.9966741928079657  0.0890837329842427  0.5487366822634527   T   T   T
  0.6207525960474811  0.0925831130673700  0.2495956727653237   T   T   T
  0.6207422065932491  0.0925744702794375  0.7495488719063275   T   T   T
  0.1207425718452129  0.0925775919564131  0.2495552830568002   T   T   T
  0.1207439622379667  0.0925767608176074  0.7495599983686247   T   T   T
  0.8834752268256807  0.0852244426818700  0.3581577998109182   T   T   T
  0.8834775792134195  0.0852251619219118  0.8581611573212058   T   T   T
  0.3834827782518673  0.0852248394131934  0.3581620509168459   T   T   T
  0.3834787583396988  0.0852263712149792  0.8581634371476454   T   T   T
  0.8836390366858495  0.0898898531129717  0.1079076528097929   T   T   T
  0.8836386806904528  0.0898899100110668  0.6079057854240872   T   T   T
  0.3836403718939820  0.0898892453120865  0.1079058192956381   T   T   T
  0.3836468552714720  0.0898752361702577  0.6078916708005053   T   T   T
  0.4870065311205281  0.4261493771606553  0.4982570414696070   T   T   T
  0.3718939612591399  0.3593816053171111  0.4611635489166233   T   T   T
  0.4195586684997181  0.2934377498155598  0.4869786517713521   T   T   T
  0.5804521292311051  0.3873290322723193  0.4087093637521022   T   T   T
  0.4898847450701993  0.3779165765351493  0.3871291448432643   T   T   T
  0.4252643842222881  0.3256237608066073  0.6125934052033486   T   T   T
  0.6176515290011366  0.3795447744433034  0.6136394110845629   T   T   T
  0.5332012457908490  0.3611394940383548  0.4179621942296876   T   T   T
  0.6903503630269512  0.1012302332006811  0.4894305186055092   T   T   T
  0.6903484931774884  0.1012327916557538  0.9894151352467588   T   T   T
  0.1903488657143981  0.1012330210933285  0.4894151473710977   T   T   T
  0.1903484124686656  0.1012327016498418  0.9894168704542921   T   T   T
  0.7737995109739799  0.0972433706066909  0.3654234475395413   T   T   T
  0.7737981214407768  0.0972445967701390  0.8654231981159555   T   T   T
  0.2737975419495982  0.0972452231624459  0.3654240020077069   T   T   T
  0.2737979315419423  0.0972444870077140  0.8654241799736369   T   T   T
  0.7737757827293237  0.0931105714931064  0.1247457904362648   T   T   T
  0.7737786355670053  0.0931099601663732  0.6247487411704071   T   T   T
  0.2737755109000233  0.0931106334684344  0.1247466606288938   T   T   T
  0.2737732089808134  0.0931097533315324  0.6247522627869486   T   T   T
  0.5348767191117147  0.1063497095726262  0.2500180447056692   T   T   T
  0.5348788993942577  0.1063548260892873  0.7500210208558684   T   T   T
  0.0348794690346637  0.1063538097233945  0.2500204179267485   T   T   T
  0.0348788629988519  0.1063535481572373  0.7500208443771186   T   T   T
  0.5348108646920551  0.0979581086860861  0.0097610647339081   T   T   T
  0.5348056116947433  0.0979512618178262  0.5097732794769030   T   T   T
  0.0348112781480836  0.0979579900939171  0.0097608648962932   T   T   T
  0.0348118525469161  0.0979573348445371  0.5097609149049305   T   T   T
  0.6786438370586225  0.0972520191513908  0.2491464544070041   T   T   T
  0.6786436511306988  0.0972545676759040  0.7491480102369223   T   T   T
  0.1786438974554301  0.0972539762937430  0.2491476160180994   T   T   T
  0.1786435227288976  0.0972540677716154  0.7491478647696184   T   T   T
  0.9404169617257239  0.0972595694193927  0.3637619315425340   T   T   T
  0.9404166148552378  0.0972595614499312  0.8637610360541501   T   T   T
  0.4404152884767996  0.0972587476771380  0.3637624182881041   T   T   T
  0.4404168969832938  0.0972598123994501  0.8637612122329443   T   T   T
  0.9403436652220591  0.1012534655194131  0.1143669490781463   T   T   T
  0.9403436876313194  0.1012534449216815  0.6143695088320769   T   T   T
  0.4403432489113257  0.1012534455331817  0.1143660464845411   T   T   T
  0.4403332008456786  0.1012465200765433  0.6143785491826463   T   T   T
  0.5952889241239205  0.2454716103060477  0.4383857242671567   T   T   T
  0.5959588346332296  0.2461360494477418  0.9384932534688701   T   T   T
  0.0959590992304840  0.2461364007551126  0.4384932587275827   T   T   T
  0.0959585413506687  0.2461357761684013  0.9384933333002436   T   T   T
  0.6072495839214724  0.2505569971584194  0.1880263877071329   T   T   T
  0.6072470258119793  0.2505618489824712  0.6880250526104064   T   T   T
  0.1072495753119540  0.2505571814006231  0.1880274465372693   T   T   T
  0.1072498045443950  0.2505568927949184  0.6880284310773916   T   T   T
  0.7737471068227180  0.2455917548956137  0.4678668089495943   T   T   T
  0.7737448421021114  0.2455930125095094  0.9678659461307646   T   T   T
  0.2737435800087340  0.2455970087110018  0.4678654435521352   T   T   T
  0.2737448720102833  0.2455929075418339  0.9678659895938466   T   T   T
  0.8453138100833115  0.2500013678775019  0.3146216922759564   T   T   T
  0.8453133766044587  0.2500015496151207  0.8146222488734978   T   T   T
  0.3453126114555829  0.2500055670842229  0.3146227908266042   T   T   T
  0.3453133514212041  0.2500017160230428  0.8146221855628326   T   T   T
  0.8569672393419552  0.2505240831091555  0.0630135588403746   T   T   T
  0.8569676303213143  0.2505248250389513  0.5630152313558128   T   T   T
  0.3569670947208365  0.2505241780974075  0.0630137601958438   T   T   T
  0.3569280221088960  0.2496210718895640  0.5630334382077251   T   T   T
  0.5355931656260964  0.2504939122135639  0.0932454957226696   T   T   T
  0.5354790415270401  0.2494697048680976  0.5935009779166762   T   T   T
  0.0355939655801620  0.2504935068275103  0.0932463776902779   T   T   T
  0.0355940475878427  0.2504936906334336  0.5932465799693247   T   T   T
  0.5355489441515999  0.2495011221519192  0.3433372889574713   T   T   T
  0.5355472893749962  0.2495081053488803  0.8433466798595148   T   T   T
  0.0355478310193291  0.2495073323376218  0.3433468316050607   T   T   T
  0.0355475022723368  0.2495071405785083  0.8433470641315424   T   T   T
  0.7959871612662539  0.2409496163295373  0.2179439347455840   T   T   T
  0.7959866023198359  0.2409520794048063  0.7179473095372586   T   T   T
  0.2959860612537923  0.2409501126194087  0.2179451205087801   T   T   T
  0.2959865186659201  0.2409507815071379  0.7179456403094449   T   T   T
  0.5832048970669064  0.3987167996979082  0.5831605086933465   T   T   T
  0.5834811104558852  0.3060078298819562  0.5309463055240826   T   T   T
  0.3755308434445865  0.3654694608924274  0.5810099545147125   T   T   T
 
  0.00000000E+00  0.00000000E+00  0.00000000E+00
  0.00000000E+00  0.00000000E+00  0.00000000E+00
  0.00000000E+00  0.00000000E+00  0.00000000E+00
  0.00000000E+00  0.00000000E+00  0.00000000E+00
  0.00000000E+00  0.00000000E+00  0.00000000E+00
  0.00000000E+00  0.00000000E+00  0.00000000E+00
  0.00000000E+00  0.00000000E+00  0.00000000E+00
  0.00000000E+00  0.00000000E+00  0.00000000E+00
  0.00000000E+00  0.00000000E+00  0.00000000E+00
  0.00000000E+00  0.00000000E+00  0.00000000E+00
  0.00000000E+00  0.00000000E+00  0.00000000E+00
  0.00000000E+00  0.00000000E+00  0.00000000E+00
  0.00000000E+00  0.00000000E+00  0.00000000E+00
  0.00000000E+00  0.00000000E+00  0.00000000E+00
  0.00000000E+00  0.00000000E+00  0.00000000E+00
  0.00000000E+00  0.00000000E+00  0.00000000E+00
  0.00000000E+00  0.00000000E+00  0.00000000E+00
  0.00000000E+00  0.00000000E+00  0.00000000E+00
  0.00000000E+00  0.00000000E+00  0.00000000E+00
  0.00000000E+00  0.00000000E+00  0.00000000E+00
  0.00000000E+00  0.00000000E+00  0.00000000E+00
  0.00000000E+00  0.00000000E+00  0.00000000E+00
  0.00000000E+00  0.00000000E+00  0.00000000E+00
  0.00000000E+00  0.00000000E+00  0.00000000E+00
  0.00000000E+00  0.00000000E+00  0.00000000E+00
  0.00000000E+00  0.00000000E+00  0.00000000E+00
  0.00000000E+00  0.00000000E+00  0.00000000E+00
  0.00000000E+00  0.00000000E+00  0.00000000E+00
  0.00000000E+00  0.00000000E+00  0.00000000E+00
  0.00000000E+00  0.00000000E+00  0.00000000E+00
  0.00000000E+00  0.00000000E+00  0.00000000E+00
  0.00000000E+00  0.00000000E+00  0.00000000E+00
  0.00000000E+00  0.00000000E+00  0.00000000E+00
  0.00000000E+00  0.00000000E+00  0.00000000E+00
  0.00000000E+00  0.00000000E+00  0.00000000E+00
  0.00000000E+00  0.00000000E+00  0.00000000E+00
  0.00000000E+00  0.00000000E+00  0.00000000E+00
  0.00000000E+00  0.00000000E+00  0.00000000E+00
  0.00000000E+00  0.00000000E+00  0.00000000E+00
  0.00000000E+00  0.00000000E+00  0.00000000E+00
  0.00000000E+00  0.00000000E+00  0.00000000E+00
  0.00000000E+00  0.00000000E+00  0.00000000E+00
  0.00000000E+00  0.00000000E+00  0.00000000E+00
  0.00000000E+00  0.00000000E+00  0.00000000E+00
  0.00000000E+00  0.00000000E+00  0.00000000E+00
  0.00000000E+00  0.00000000E+00  0.00000000E+00
  0.00000000E+00  0.00000000E+00  0.00000000E+00
  0.00000000E+00  0.00000000E+00  0.00000000E+00
  0.00000000E+00  0.00000000E+00  0.00000000E+00
  0.00000000E+00  0.00000000E+00  0.00000000E+00
  0.00000000E+00  0.00000000E+00  0.00000000E+00
  0.00000000E+00  0.00000000E+00  0.00000000E+00
  0.00000000E+00  0.00000000E+00  0.00000000E+00
  0.00000000E+00  0.00000000E+00  0.00000000E+00
  0.00000000E+00  0.00000000E+00  0.00000000E+00
  0.00000000E+00  0.00000000E+00  0.00000000E+00
  0.00000000E+00  0.00000000E+00  0.00000000E+00
  0.00000000E+00  0.00000000E+00  0.00000000E+00
  0.00000000E+00  0.00000000E+00  0.00000000E+00
  0.00000000E+00  0.00000000E+00  0.00000000E+00
  0.00000000E+00  0.00000000E+00  0.00000000E+00
  0.00000000E+00  0.00000000E+00  0.00000000E+00
  0.00000000E+00  0.00000000E+00  0.00000000E+00
  0.00000000E+00  0.00000000E+00  0.00000000E+00
  0.00000000E+00  0.00000000E+00  0.00000000E+00
  0.00000000E+00  0.00000000E+00  0.00000000E+00
  0.00000000E+00  0.00000000E+00  0.00000000E+00
  0.00000000E+00  0.00000000E+00  0.00000000E+00
  0.00000000E+00  0.00000000E+00  0.00000000E+00
  0.00000000E+00  0.00000000E+00  0.00000000E+00
  0.00000000E+00  0.00000000E+00  0.00000000E+00
  0.00000000E+00  0.00000000E+00  0.00000000E+00
  0.00000000E+00  0.00000000E+00  0.00000000E+00
  0.00000000E+00  0.00000000E+00  0.00000000E+00
  0.00000000E+00  0.00000000E+00  0.00000000E+00
  0.00000000E+00  0.00000000E+00  0.00000000E+00
  0.00000000E+00  0.00000000E+00  0.00000000E+00
  0.00000000E+00  0.00000000E+00  0.00000000E+00
  0.00000000E+00  0.00000000E+00  0.00000000E+00
  0.00000000E+00  0.00000000E+00  0.00000000E+00
  0.00000000E+00  0.00000000E+00  0.00000000E+00
  0.00000000E+00  0.00000000E+00  0.00000000E+00
  0.00000000E+00  0.00000000E+00  0.00000000E+00
  0.00000000E+00  0.00000000E+00  0.00000000E+00
  0.00000000E+00  0.00000000E+00  0.00000000E+00
  0.00000000E+00  0.00000000E+00  0.00000000E+00
  0.00000000E+00  0.00000000E+00  0.00000000E+00
  0.00000000E+00  0.00000000E+00  0.00000000E+00
  0.00000000E+00  0.00000000E+00  0.00000000E+00
  0.00000000E+00  0.00000000E+00  0.00000000E+00
  0.00000000E+00  0.00000000E+00  0.00000000E+00
  0.00000000E+00  0.00000000E+00  0.00000000E+00
  0.00000000E+00  0.00000000E+00  0.00000000E+00
  0.00000000E+00  0.00000000E+00  0.00000000E+00
  0.00000000E+00  0.00000000E+00  0.00000000E+00
  0.00000000E+00  0.00000000E+00  0.00000000E+00
  0.00000000E+00  0.00000000E+00  0.00000000E+00
  0.00000000E+00  0.00000000E+00  0.00000000E+00
  0.00000000E+00  0.00000000E+00  0.00000000E+00
  0.00000000E+00  0.00000000E+00  0.00000000E+00
  0.00000000E+00  0.00000000E+00  0.00000000E+00
  0.00000000E+00  0.00000000E+00  0.00000000E+00
  0.00000000E+00  0.00000000E+00  0.00000000E+00
  0.00000000E+00  0.00000000E+00  0.00000000E+00
  0.00000000E+00  0.00000000E+00  0.00000000E+00
  0.00000000E+00  0.00000000E+00  0.00000000E+00
  0.00000000E+00  0.00000000E+00  0.00000000E+00
  0.00000000E+00  0.00000000E+00  0.00000000E+00
  0.00000000E+00  0.00000000E+00  0.00000000E+00
  0.00000000E+00  0.00000000E+00  0.00000000E+00
  0.00000000E+00  0.00000000E+00  0.00000000E+00
  0.00000000E+00  0.00000000E+00  0.00000000E+00
  0.00000000E+00  0.00000000E+00  0.00000000E+00
  0.00000000E+00  0.00000000E+00  0.00000000E+00
  0.00000000E+00  0.00000000E+00  0.00000000E+00
  0.00000000E+00  0.00000000E+00  0.00000000E+00
  0.00000000E+00  0.00000000E+00  0.00000000E+00
  0.00000000E+00  0.00000000E+00  0.00000000E+00
  0.00000000E+00  0.00000000E+00  0.00000000E+00
  0.00000000E+00  0.00000000E+00  0.00000000E+00
  0.00000000E+00  0.00000000E+00  0.00000000E+00
  0.00000000E+00  0.00000000E+00  0.00000000E+00
  0.00000000E+00  0.00000000E+00  0.00000000E+00
  0.00000000E+00  0.00000000E+00  0.00000000E+00
  0.00000000E+00  0.00000000E+00  0.00000000E+00
  0.00000000E+00  0.00000000E+00  0.00000000E+00
  0.00000000E+00  0.00000000E+00  0.00000000E+00
  0.00000000E+00  0.00000000E+00  0.00000000E+00
  0.00000000E+00  0.00000000E+00  0.00000000E+00
  0.00000000E+00  0.00000000E+00  0.00000000E+00
  0.00000000E+00  0.00000000E+00  0.00000000E+00
  0.00000000E+00  0.00000000E+00  0.00000000E+00
  0.00000000E+00  0.00000000E+00  0.00000000E+00
  0.00000000E+00  0.00000000E+00  0.00000000E+00
  0.00000000E+00  0.00000000E+00  0.00000000E+00
  0.00000000E+00  0.00000000E+00  0.00000000E+00
  0.00000000E+00  0.00000000E+00  0.00000000E+00
  0.00000000E+00  0.00000000E+00  0.00000000E+00
  0.00000000E+00  0.00000000E+00  0.00000000E+00
  0.00000000E+00  0.00000000E+00  0.00000000E+00
  0.00000000E+00  0.00000000E+00  0.00000000E+00
  0.00000000E+00  0.00000000E+00  0.00000000E+00
  0.00000000E+00  0.00000000E+00  0.00000000E+00
  0.00000000E+00  0.00000000E+00  0.00000000E+00
  0.00000000E+00  0.00000000E+00  0.00000000E+00
  0.00000000E+00  0.00000000E+00  0.00000000E+00
  0.00000000E+00  0.00000000E+00  0.00000000E+00
  0.00000000E+00  0.00000000E+00  0.00000000E+00
  0.00000000E+00  0.00000000E+00  0.00000000E+00
  0.00000000E+00  0.00000000E+00  0.00000000E+00
  0.00000000E+00  0.00000000E+00  0.00000000E+00
  0.00000000E+00  0.00000000E+00  0.00000000E+00
  0.00000000E+00  0.00000000E+00  0.00000000E+00
  0.00000000E+00  0.00000000E+00  0.00000000E+00
  0.00000000E+00  0.00000000E+00  0.00000000E+00
  0.00000000E+00  0.00000000E+00  0.00000000E+00
  0.00000000E+00  0.00000000E+00  0.00000000E+00
  0.00000000E+00  0.00000000E+00  0.00000000E+00
  0.00000000E+00  0.00000000E+00  0.00000000E+00
  0.00000000E+00  0.00000000E+00  0.00000000E+00
  0.00000000E+00  0.00000000E+00  0.00000000E+00
  0.00000000E+00  0.00000000E+00  0.00000000E+00
  0.00000000E+00  0.00000000E+00  0.00000000E+00
  0.00000000E+00  0.00000000E+00  0.00000000E+00
  0.00000000E+00  0.00000000E+00  0.00000000E+00
  0.00000000E+00  0.00000000E+00  0.00000000E+00
  0.00000000E+00  0.00000000E+00  0.00000000E+00
  0.00000000E+00  0.00000000E+00  0.00000000E+00
  0.00000000E+00  0.00000000E+00  0.00000000E+00
  0.00000000E+00  0.00000000E+00  0.00000000E+00
  0.00000000E+00  0.00000000E+00  0.00000000E+00
  0.00000000E+00  0.00000000E+00  0.00000000E+00
  0.00000000E+00  0.00000000E+00  0.00000000E+00
  0.00000000E+00  0.00000000E+00  0.00000000E+00
  0.00000000E+00  0.00000000E+00  0.00000000E+00
  0.00000000E+00  0.00000000E+00  0.00000000E+00
  0.00000000E+00  0.00000000E+00  0.00000000E+00
  0.00000000E+00  0.00000000E+00  0.00000000E+00
  0.00000000E+00  0.00000000E+00  0.00000000E+00
  0.00000000E+00  0.00000000E+00  0.00000000E+00
  0.00000000E+00  0.00000000E+00  0.00000000E+00
  0.00000000E+00  0.00000000E+00  0.00000000E+00
  0.00000000E+00  0.00000000E+00  0.00000000E+00
  0.00000000E+00  0.00000000E+00  0.00000000E+00
  0.00000000E+00  0.00000000E+00  0.00000000E+00
  0.00000000E+00  0.00000000E+00  0.00000000E+00
  0.00000000E+00  0.00000000E+00  0.00000000E+00
  0.00000000E+00  0.00000000E+00  0.00000000E+00
  0.00000000E+00  0.00000000E+00  0.00000000E+00
  0.00000000E+00  0.00000000E+00  0.00000000E+00
  0.00000000E+00  0.00000000E+00  0.00000000E+00
  0.00000000E+00  0.00000000E+00  0.00000000E+00
  0.00000000E+00  0.00000000E+00  0.00000000E+00
  0.00000000E+00  0.00000000E+00  0.00000000E+00
  0.00000000E+00  0.00000000E+00  0.00000000E+00
  0.00000000E+00  0.00000000E+00  0.00000000E+00
  0.00000000E+00  0.00000000E+00  0.00000000E+00
  0.00000000E+00  0.00000000E+00  0.00000000E+00
  0.00000000E+00  0.00000000E+00  0.00000000E+00
  0.00000000E+00  0.00000000E+00  0.00000000E+00
  0.00000000E+00  0.00000000E+00  0.00000000E+00
  0.00000000E+00  0.00000000E+00  0.00000000E+00
  0.00000000E+00  0.00000000E+00  0.00000000E+00
  0.00000000E+00  0.00000000E+00  0.00000000E+00
  0.00000000E+00  0.00000000E+00  0.00000000E+00
  0.00000000E+00  0.00000000E+00  0.00000000E+00
  0.00000000E+00  0.00000000E+00  0.00000000E+00
  0.00000000E+00  0.00000000E+00  0.00000000E+00
  0.00000000E+00  0.00000000E+00  0.00000000E+00
  0.00000000E+00  0.00000000E+00  0.00000000E+00
  0.00000000E+00  0.00000000E+00  0.00000000E+00
  0.00000000E+00  0.00000000E+00  0.00000000E+00
  0.00000000E+00  0.00000000E+00  0.00000000E+00
  0.00000000E+00  0.00000000E+00  0.00000000E+00
  0.00000000E+00  0.00000000E+00  0.00000000E+00
  0.00000000E+00  0.00000000E+00  0.00000000E+00
  0.00000000E+00  0.00000000E+00  0.00000000E+00
  0.00000000E+00  0.00000000E+00  0.00000000E+00
  0.00000000E+00  0.00000000E+00  0.00000000E+00
  0.00000000E+00  0.00000000E+00  0.00000000E+00
  0.00000000E+00  0.00000000E+00  0.00000000E+00
  0.00000000E+00  0.00000000E+00  0.00000000E+00
  0.00000000E+00  0.00000000E+00  0.00000000E+00
  0.00000000E+00  0.00000000E+00  0.00000000E+00
  0.00000000E+00  0.00000000E+00  0.00000000E+00
  0.00000000E+00  0.00000000E+00  0.00000000E+00
  0.00000000E+00  0.00000000E+00  0.00000000E+00
  0.00000000E+00  0.00000000E+00  0.00000000E+00
  0.00000000E+00  0.00000000E+00  0.00000000E+00
  0.00000000E+00  0.00000000E+00  0.00000000E+00
  0.00000000E+00  0.00000000E+00  0.00000000E+00
  0.00000000E+00  0.00000000E+00  0.00000000E+00
  0.00000000E+00  0.00000000E+00  0.00000000E+00
  0.00000000E+00  0.00000000E+00  0.00000000E+00
  0.00000000E+00  0.00000000E+00  0.00000000E+00
  0.00000000E+00  0.00000000E+00  0.00000000E+00
  0.00000000E+00  0.00000000E+00  0.00000000E+00
  0.00000000E+00  0.00000000E+00  0.00000000E+00
