C H N S                                 
   1.00000000000000     
    20.0000000000000000    0.0000000000000000    0.0000000000000000
     0.0000000000000000   21.3509999999999991    0.0000000000000000
     0.0000000000000000    0.0000000000000000   19.7231999999999985
   C    H    N    S 
   161     4     2     1
Selective dynamics
Direct
  0.0405530947163960  0.0170452687948778  0.0309738691443937   T   T   T
  0.0405370631800810  0.0170575211655640  0.1559784419652195   T   T   T
  0.0405322252049736  0.0170563030642062  0.2809781173988721   T   T   T
  0.0405626559461881  0.0170452229344024  0.4059630223044468   T   T   T
  0.0405426797071829  0.0170587417621403  0.5309681906561895   T   T   T
  0.0405267360479313  0.0170592903416495  0.6559896467496299   T   T   T
  0.0405557486855084  0.0170487383600832  0.7809734259294672   T   T   T
  0.0405233712785180  0.0170544560868796  0.9059933125016352   T   T   T
  0.0405554452949639  0.0835203144525709  0.0307722789651832   T   T   T
  0.0404452576978849  0.0835573363254841  0.1557640669431828   T   T   T
  0.0405036160183270  0.0835377409325935  0.2807745948634847   T   T   T
  0.0404516957828712  0.0835404109691599  0.4057643739673090   T   T   T
  0.0404640203782678  0.0835369822217552  0.5307578057364113   T   T   T
  0.0404635123534052  0.0835349776624899  0.6557819161165289   T   T   T
  0.0405073047831285  0.0835184455328877  0.7807900201430349   T   T   T
  0.0404449626224820  0.0835583520591780  0.9057725036677001   T   T   T
  0.0407047964562584  0.1187066434973509  0.0934960480272163   T   T   T
  0.0406780986647863  0.1186851217947113  0.2186320165115463   T   T   T
  0.0406473831892664  0.1187234077381426  0.3435572625020337   T   T   T
  0.0406525075784558  0.1186809579316788  0.4685166867679328   T   T   T
  0.0406169802355698  0.1185594190227263  0.5935739623639072   T   T   T
  0.0406041098169930  0.1186620632831244  0.7186345558798569   T   T   T
  0.0407222895222054  0.1186928116895628  0.8435129944495717   T   T   T
  0.0407118503475572  0.1187158319933585  0.9686346473559633   T   T   T
  0.0400143099889501  0.1844568011411668  0.0933433959058662   T   T   T
  0.0399969325644850  0.1843044978778007  0.2186105083339749   T   T   T
  0.0402635866985942  0.1845719017434947  0.3433230426179982   T   T   T
  0.0404757172886805  0.1842404243491073  0.4681654034660923   T   T   T
  0.0406155561296573  0.1836454737578375  0.5934782719869591   T   T   T
  0.0401987121029622  0.1840391522769961  0.7186546559962854   T   T   T
  0.0400448576422213  0.1843948878987053  0.8433242714373577   T   T   T
  0.0398814635726410  0.1844699216023430  0.9685995575069413   T   T   T
  0.0357275585842589  0.2162377884954626  0.0311368445725531   T   T   T
  0.0310501456918371  0.2135258115199155  0.1555975538372714   T   T   T
  0.0375767918668474  0.2155678524524689  0.2811385833829045   T   T   T
  0.0376929810589366  0.2154968935699612  0.4061256622202779   T   T   T
  0.0404102860358248  0.2132590884256381  0.5307610410565174   T   T   T
  0.0404368664396727  0.2132032362838420  0.6557359931484674   T   T   T
  0.0376429059973382  0.2155256096406198  0.7811254544432310   T   T   T
  0.0309579135276925  0.2133497739793742  0.9057810364891196   T   T   T
  0.0340971674742573  0.2806762118729972  0.0311625073904474   T   T   T
  0.0337506440579320  0.2800224673147718  0.1560849733509186   T   T   T
  0.0359837452926561  0.2811829126313629  0.2811685408215334   T   T   T
  0.0359862750555029  0.2811514233467960  0.4061674358424288   T   T   T
  0.0405728479557826  0.2784825699643913  0.5307172749468859   T   T   T
  0.0405849451419327  0.2784525569292449  0.6557070255075976   T   T   T
  0.0359875806575190  0.2811617095853977  0.7811816254085858   T   T   T
  0.0315478464524104  0.2788552921092683  0.9058229007393782   T   T   T
  0.0398979772324839  0.3141586526946425  0.0936022292925617   T   T   T
  0.0400625294728529  0.3142523417497473  0.2182680724127347   T   T   T
  0.0401635623680204  0.3143604800823745  0.3433177449749273   T   T   T
  0.0402794205053982  0.3141689737143790  0.4684471423140392   T   T   T
  0.0406634834870902  0.3139456852976050  0.5931840236670914   T   T   T
  0.0403110151496487  0.3141360698734805  0.7181963995030833   T   T   T
  0.0398574021346677  0.3142291856009419  0.8437794889823172   T   T   T
  0.0397543379701221  0.3141343869153000  0.9684318095889122   T   T   T
  0.0405500758974491  0.3800644553859623  0.0932439403854020   T   T   T
  0.0405250249407658  0.3800836437669639  0.2181940385802289   T   T   T
  0.0406314538609814  0.3801214384149411  0.3432213096947672   T   T   T
  0.0401950176751855  0.3800518153687008  0.4683445539713367   T   T   T
  0.0405665756100890  0.3800213321061552  0.5932199881502496   T   T   T
  0.0404590362709768  0.3800437461291416  0.7181697214784727   T   T   T
  0.0405273796484251  0.3800841656876216  0.8432858209935145   T   T   T
  0.0405787593768404  0.3800345050179172  0.9682090104206292   T   T   T
  0.0407523192709917  0.4150996421511700  0.0308433029306449   T   T   T
  0.0406346185513920  0.4154543636443507  0.1557408490049295   T   T   T
  0.0406470615873043  0.4154653922883131  0.2807361874010443   T   T   T
  0.0399693160528657  0.4157623298700064  0.4059306169922496   T   T   T
  0.0394543625262491  0.4159622359805567  0.5310759976712294   T   T   T
  0.0405453121523189  0.4152232398233140  0.6559002453076511   T   T   T
  0.0407255150500910  0.4150427502226219  0.7808858270487323   T   T   T
  0.0406134970498995  0.4154738337887418  0.9057429333738235   T   T   T
  0.0404467315436895  0.4817442764181447  0.0307542657216407   T   T   T
  0.0404355441457463  0.4817802798990119  0.1557536194698988   T   T   T
  0.0406646893262619  0.4817792883565481  0.2807496574882053   T   T   T
  0.0303727638580442  0.4817820519903398  0.4057634479691648   T   T   T
  0.0219260739384816  0.4816485305944724  0.5313311070678579   T   T   T
  0.0404641892322639  0.4817208704749835  0.6558229117274591   T   T   T
  0.0404494365918229  0.4817381696252118  0.7807549961546849   T   T   T
  0.0404341608002615  0.4817915940695895  0.9057531243190182   T   T   T
  0.0405312678492672  0.5170520527601016  0.0934705249363282   T   T   T
  0.0405805724412333  0.5170512934308980  0.2184789409336101   T   T   T
  0.0402131362296775  0.5171309042095007  0.3436546480926101   T   T   T
  0.0201765527526819  0.5169279723124004  0.4685564226634674   T   T   T
  0.0406208758350033  0.5166666666659978  0.5937500425700009   F   F   F
  0.0406633206501174  0.5170307746093796  0.7184090110321817   T   T   T
  0.0405532927814726  0.5170540135013263  0.8434603494233158   T   T   T
  0.0405529989256341  0.5170447395312207  0.9684776513465375   T   T   T
  0.0404924566120614  0.5835360403877256  0.0932424872494968   T   T   T
  0.0405784149924677  0.5835362105286619  0.2182801453185826   T   T   T
  0.0401568091835034  0.5835608126426467  0.3434319594839416   T   T   T
  0.0203170214043633  0.5836179727854607  0.4682796488271082   T   T   T
  0.0401548706497370  0.5835229926365159  0.5932374292860045   T   T   T
  0.0405535262417707  0.5835439894845746  0.7182625438142571   T   T   T
  0.0404710065183596  0.5835672209694175  0.8432705951812300   T   T   T
  0.0405197996037254  0.5835577884725304  0.9682790010198314   T   T   T
  0.0406874011380030  0.6187026813476016  0.0309947187097556   T   T   T
  0.0407464576363241  0.6186259445577986  0.1560425393428725   T   T   T
  0.0408345419668804  0.6186958698024354  0.2811462839373091   T   T   T
  0.0308914325128589  0.6187070197510911  0.4063029184788044   T   T   T
  0.0306119291208098  0.6187753078680078  0.5309630158932725   T   T   T
  0.0408105760104461  0.6186954131440574  0.6560749968497323   T   T   T
  0.0406370376014093  0.6187595591342175  0.7810287015632659   T   T   T
  0.0406476311388560  0.6187471987110582  0.9060477666564026   T   T   T
  0.0400921747638990  0.6845823134006284  0.0306391030197625   T   T   T
  0.0401476812099941  0.6837672033333242  0.1560058458607487   T   T   T
  0.0399286658802331  0.6843712755083499  0.2812479918347831   T   T   T
  0.0393390254270610  0.6847790766217595  0.4063793332727348   T   T   T
  0.0399532272141329  0.6846722482497523  0.5305496140131596   T   T   T
  0.0400974805416708  0.6843161770468771  0.6563481609568944   T   T   T
  0.0401091384502071  0.6846815771798082  0.7808460173125923   T   T   T
  0.0401210567513007  0.6846976142638224  0.9058962109185619   T   T   T
  0.0316593458999802  0.7128712905534665  0.0934072534801644   T   T   T
  0.0312223204982387  0.7131784814272786  0.2182357036460461   T   T   T
  0.0358900381306218  0.7162561043266957  0.3436968290348464   T   T   T
  0.0315114879348352  0.7193134069022150  0.4680193909270821   T   T   T
  0.0402770869607108  0.7133442076825005  0.5933547253841941   T   T   T
  0.0357394273666537  0.7162782050984431  0.7186618148471622   T   T   T
  0.0357030326511266  0.7162652036556977  0.8436661279087809   T   T   T
  0.0359148270101850  0.7164577827537347  0.9686956477619679   T   T   T
  0.0316598016676052  0.7783512527518585  0.0934988589697689   T   T   T
  0.0313572536080831  0.7785663863684401  0.2185453590819926   T   T   T
  0.0358794758761468  0.7812256554398747  0.3436955360144329   T   T   T
  0.0311039532366268  0.7855135845787673  0.4686384104303105   T   T   T
  0.0347137365936950  0.7796690371570203  0.5936577520941201   T   T   T
  0.0359456915124288  0.7812443336830195  0.7186516478941447   T   T   T
  0.0358684562698454  0.7812281679849025  0.8436539327451920   T   T   T
  0.0360218961749295  0.7830439219707425  0.9686122799176140   T   T   T
  0.0399393533581083  0.8142729201873857  0.0314946619532242   T   T   T
  0.0398731003421375  0.8138878737432375  0.1561288477449139   T   T   T
  0.0400115112355079  0.8141777822365077  0.2807597048353377   T   T   T
  0.0400732484709519  0.8146216251271265  0.4057086000107353   T   T   T
  0.0399952884576383  0.8144746515426657  0.5317077601289050   T   T   T
  0.0400986108093159  0.8142630920259981  0.6557510605836349   T   T   T
  0.0401279583323283  0.8143725308316367  0.7808405304641161   T   T   T
  0.0401664767697572  0.8144770035234220  0.9057580715685770   T   T   T
  0.0405647054404717  0.8800744241083254  0.0308401796676577   T   T   T
  0.0405933029719000  0.8799901311095535  0.1557162705628626   T   T   T
  0.0405658718542872  0.8800653301435832  0.2806714334557835   T   T   T
  0.0406545889059617  0.8801832727317702  0.4056295855145341   T   T   T
  0.0405661798677692  0.8801504346092657  0.5308796323720405   T   T   T
  0.0405039761402654  0.8800704661722806  0.6556845066510392   T   T   T
  0.0405466039094136  0.8800875364138857  0.7807155804722683   T   T   T
  0.0405673775167578  0.8801309098054330  0.9056725382593150   T   T   T
  0.0406520370443893  0.9154455999110521  0.0932339894668829   T   T   T
  0.0406692225405519  0.9152903659146305  0.2182681335459203   T   T   T
  0.0406981419088265  0.9155014359173644  0.3432133363433885   T   T   T
  0.0406429872947394  0.9153133323832349  0.4682842361608933   T   T   T
  0.0406344673863919  0.9156361145038077  0.5932096868382924   T   T   T
  0.0406511753847328  0.9153475002356105  0.7182638287204927   T   T   T
  0.0406196885470062  0.9155580320526067  0.8432177115973489   T   T   T
  0.0407190882611645  0.9151017275340400  0.9683537559303830   T   T   T
  0.0404310996790362  0.9817798982690481  0.0932569677168395   T   T   T
  0.0404385768205160  0.9817669797572289  0.2182491170285571   T   T   T
  0.0404443053910925  0.9817893718721683  0.3432444539937498   T   T   T
  0.0404364885538254  0.9817697352330935  0.4682553957210649   T   T   T
  0.0404425912808941  0.9818058567061896  0.5932557155717731   T   T   T
  0.0404369645380733  0.9817716623734249  0.7182551312008768   T   T   T
  0.0404377168956245  0.9817927330081747  0.8432511533893087   T   T   T
  0.0404370087649780  0.9817514534907021  0.9682606986627635   T   T   T
  0.1620740823960034  0.4972381898090035  0.5086088277789997   F   F   F
  0.1429304655161024  0.4525187696802063  0.4198129770026580   T   T   T
  0.1346781908795283  0.4070152893303050  0.4885565964700320   T   T   T
  0.1434132929616016  0.5365165323308789  0.4198096732780395   T   T   T
  0.1080910120783243  0.5786534144938278  0.4745742676518773   T   T   T
  0.1626127576003354  0.4439649212377523  0.4684694692042166   T   T   T
  0.1529602728261236  0.5540486082297572  0.4680375270461961   T   T   T
  0.1759200174067718  0.4885106039440520  0.5898148160115618   T   T   T