C H N O S                               
   1.00000000000000     
    17.0814999999999984    0.0000000000000000    0.0000000000000000
     0.0000000000000000   20.0000000000000000    0.0000000000000000
     0.0000000000000000    0.0000000000000000   19.7743000000000002
   C    H    N    O    S 
   129    68     2    96     1
Selective dynamics
Direct
  0.1108818136818871  0.0989437148931724  0.0613077386966407   T   T   T
  0.1158293873019696  0.1090050285690550  0.2794960174820691   T   T   T
  0.1270511310216802  0.1113781663390654  0.5446645807926737   T   T   T
  0.1176540371155442  0.1253565671420405  0.7833219653091713   T   T   T
  0.6205640944835215  0.1306291612983762  0.0465034421142805   T   T   T
  0.6159180140134306  0.0935207965651464  0.2672698992309353   T   T   T
  0.5879148364196370  0.1162677493446544  0.5365879230577071   T   T   T
  0.6105546327223554  0.1400681101537216  0.7635479517120735   T   T   T
  0.0874002244058385  0.1263196772570445  0.1964898731474862   T   T   T
  0.1139717561070494  0.1002392341553970  0.4121829178964348   T   T   T
  0.0961463678994780  0.1489043107365558  0.7049197284576086   T   T   T
  0.1262001356659490  0.0863032979244481  0.9189870262279437   T   T   T
  0.6079572556792925  0.1536135405200522  0.2216849797794268   T   T   T
  0.6077088036569729  0.1184601401464519  0.4029719654863613   T   T   T
  0.6179225769954844  0.1440452543732556  0.6905794205670672   T   T   T
  0.6309999158390045  0.0915515597578438  0.9366676583834157   T   T   T
  0.3384987170542146  0.1832937262439705  0.0401129719078206   T   T   T
  0.3586840301471230  0.1300863998464848  0.2745802699467634   T   T   T
  0.3384545424299022  0.1773590492452551  0.5485112812068779   T   T   T
  0.3590018185659267  0.1331685435070872  0.7855315110569849   T   T   T
  0.8388359987249626  0.1634982336349291  0.0391062265227900   T   T   T
  0.8604145196443159  0.1244668707392735  0.2823512997946100   T   T   T
  0.8465736253463989  0.1744371212873156  0.5392403939791240   T   T   T
  0.8463885476687601  0.1174323757405642  0.7786821961219063   T   T   T
  0.3498814792061717  0.1267235697677980  0.1502468286093921   T   T   T
  0.3655944116019171  0.0955871066025749  0.4094583783853558   T   T   T
  0.3404084451725272  0.1294162453427417  0.6583691668379906   T   T   T
  0.3778670746935406  0.1177833465033245  0.9237264532427502   T   T   T
  0.8494385923768599  0.1248933111867154  0.1549278162952702   T   T   T
  0.8756089108527507  0.1104898288552374  0.4349572339102273   T   T   T
  0.8525459288998218  0.1260291812307524  0.6474348704203432   T   T   T
  0.8727042900044073  0.1160626253403251  0.9043093099080151   T   T   T
  0.1695208962287209  0.0638876486250230  0.0189297053419032   T   T   T
  0.1968938898312890  0.0977394373672751  0.2774763501651689   T   T   T
  0.1457659668567854  0.0489368856859388  0.5466732221151609   T   T   T
  0.1992783646483886  0.1126711803895202  0.7873400312243513   T   T   T
  0.6291761040518388  0.0636020628186338  0.0683145371006815   T   T   T
  0.6989038289698177  0.0987040490569589  0.2739113383040956   T   T   T
  0.6832983427401236  0.1271599030103746  0.5375947028652585   T   T   T
  0.6840480956147605  0.1146737508070872  0.7694184662774731   T   T   T
  0.1762790572744785  0.1505939457631975  0.1810255434013163   T   T   T
  0.1956644359071196  0.1303672603964978  0.3993064987091750   T   T   T
  0.1749691458623370  0.1286511246630819  0.6880704255447360   T   T   T
  0.2070281181831130  0.1210657092478082  0.9073954128153395   T   T   T
  0.6675230137045347  0.1572256281304281  0.1747073281739630   T   T   T
  0.6946853949671974  0.1386422670385360  0.4000725573719811   T   T   T
  0.6630314690075831  0.1157527044646363  0.6459248843641632   T   T   T
  0.6982593081622249  0.1279897537153868  0.9032519981693533   T   T   T
  0.4139800456686338  0.0403162022697995  0.0641051468037550   T   T   T
  0.4338767671865441  0.1056083856026870  0.2655435859402764   T   T   T
  0.3794073790249159  0.0541502886631599  0.5323277019135524   T   T   T
  0.4444540665624048  0.0980876071531554  0.7749477316008807   T   T   T
  0.9128323898822240  0.0528850968828242  0.0321075454045441   T   T   T
  0.9452517396434308  0.1325147048897328  0.2866578711140547   T   T   T
  0.8851101653377375 -0.0025592209986691  0.5673123448753413   T   T   T
  0.9278165163208236  0.1437442458517093  0.7823378055158320   T   T   T
  0.4252138610166475  0.1045402882919581  0.1587821625558587   T   T   T
  0.4459030181903327  0.1224668226669642  0.3938952552929176   T   T   T
  0.3972482041833491  0.0729351290014588  0.6601850644550098   T   T   T
  0.4497819691087734  0.1524940166687802  0.9080294991744102   T   T   T
  0.9351616339354212  0.1225758228362643  0.1596715154590169   T   T   T
  0.9460041511667746  0.1554941585609215  0.4108336281615704   T   T   T
  0.9353254168160823  0.1487863120514220  0.6456495050124631   T   T   T
  0.9470816815522815  0.1311796171278952  0.9140536704987690   T   T   T
  0.2234219678778409  0.1601804650254620  0.1211488171786957   T   T   T
  0.2359998304990465  0.0967366958192980  0.3389699204828560   T   T   T
  0.2071804237754739  0.1402002405989739  0.6105160724470483   T   T   T
  0.2362276674126156  0.0987825700419352  0.8395767317474835   T   T   T
  0.7217708805124374  0.1194575483558374  0.1365149964487600   T   T   T
  0.7372469047579008  0.0969472809974773  0.3457378596378270   T   T   T
  0.7182774365731153  0.1391149022834700  0.5961476548061306   T   T   T
  0.7260057908411195  0.0926414218839116  0.8343140367998547   T   T   T
  0.2287153965615680  0.0977815199307536  0.2149932868544702   T   T   T
  0.2666015061995874  0.1157812685263379  0.4580365266017085   T   T   T
  0.2308722041535578  0.1029145297214297  0.7250409527365902   T   T   T
  0.2450948899617466  0.1047816611898614  0.9740624654976902   T   T   T
  0.7441925420877016  0.0878020437180193  0.2178469543252683   T   T   T
  0.7429287211656662  0.1044106690898944  0.4798116297118839   T   T   T
  0.7173729482276651  0.0852915874616514  0.6960766268595536   T   T   T
  0.7766876659528380  0.1199708193101195  0.9476235359007584   T   T   T
  0.4633924453800619  0.0800234211587842  0.1024875311822372   T   T   T
  0.4851102579781107  0.0707219902558766  0.3095966461528242   T   T   T
  0.4337525632072393  0.0935317030524985  0.5986743039012759   T   T   T
  0.4751262502009477  0.1299542817619104  0.8397899559599612   T   T   T
  0.9573825437938331  0.0936353640903805  0.0891236942775764   T   T   T
  0.9786646245080106  0.1450483104298385  0.3472432874329068   T   T   T
  0.9994388064632883  0.1264729011212060  0.6180399555426408   T   T   T
  0.9820706228952324  0.1289604671093114  0.8235677894772130   T   T   T
  0.4658378015135897  0.1769758194016298  0.1951127057408553   T   T   T
  0.4954326724337351  0.0807055470583967  0.4391648916351059   T   T   T
  0.4646269168319683  0.1117525631486751  0.7007523014119745   T   T   T
  0.5136170437679349  0.0859674799912671  0.9548675205480681   T   T   T
  0.9685925010736463  0.0942824596049996  0.2232810204609714   T   T   T
  0.9918568335442514  0.0969720287359309  0.4461412787586964   T   T   T
  0.9662727184931138  0.1894696349365742  0.7174340661821490   T   T   T
  0.9709056719182012  0.0504860865568036  0.9651770653699339   T   T   T
  0.0277977420529820  0.0664561077672257  0.0799976869960441   T   T   T
  0.0625478130517103  0.1455608917606416  0.3468444548931394   T   T   T
  0.0322754833504584  0.0591330752871923  0.6000834245463814   T   T   T
  0.0563925526909677  0.1637676483700777  0.8175675915141564   T   T   T
  0.5927661484817380 -0.0146331458392874  0.1134679831809183   T   T   T
  0.5586820135288422  0.1275184295083475  0.3272084937686436   T   T   T
  0.5047500442633535  0.0650103913620496  0.5731334706364092   T   T   T
  0.5483761070703327  0.1695391328851277  0.8085591348267077   T   T   T
  0.0175097383891086  0.1900417863724502  0.2050258514613666   T   T   T
  0.0571440567848200  0.1350717891762626  0.4778495262163516   T   T   T
  0.0381376123041568  0.2082892687748985  0.7082155258601197   T   T   T
  0.0689035775177417  0.1331813418837234  0.9766021466273890   T   T   T
  0.5411827354333657  0.1907021598459025  0.2432015139444656   T   T   T
  0.5603397736140323  0.1332176770710376  0.4690378881547232   F   F   F
  0.5582919641027870  0.2151770244153557  0.6824796262455656   T   T   T
  0.5639146131303662  0.1349787638013142  0.9810061614631688   T   T   T
  0.3053398066803156  0.1678461201510798  0.1012219664276924   T   T   T
  0.3126108225983540  0.1397130524589391  0.3427198992314582   T   T   T
  0.2959327713291403  0.1573350495849142  0.6001862686735917   T   T   T
  0.3080240342084333  0.1442227309050632  0.8535907193097498   T   T   T
  0.8057093232781697  0.1481656255120137  0.1032563984703417   T   T   T
  0.8126340616818205  0.1582517340164362  0.3358766467432727   T   T   T
  0.8031503735484323  0.1681164787639073  0.5996580018818838   T   T   T
  0.8169037737797353  0.1456902082149799  0.8376598854946764   T   T   T
  0.3126389274895231  0.1501217084822348  0.2123634248970387   T   T   T
  0.3284749748836016  0.1607576497075738  0.4778678398021307   T   T   T
  0.3088192163385895  0.1261457252987869  0.7242526149580478   T   T   T
  0.3153525715079018  0.1542685890909335  0.9765675976726019   T   T   T
  0.8170061444661399  0.1256566700731018  0.2236347529666403   T   T   T
  0.8209856118258759  0.1307187887143732  0.4833938480389561   T   T   T
  0.8060460437386193  0.1172546460119347  0.7086836794555045   T   T   T
  0.8197349944493896  0.1686295454296433  0.9698852985686883   T   T   T
  0.5087977641234650  0.3331468588673529  0.5046843900200952   T   T   T
 -0.0619798215056570  0.1486090519336926  0.0652944046601348   T   T   T
  0.0248237471892205  0.2318624178924642  0.4678465280757796   T   T   T
 -0.0392512265294295  0.1316311265414559  0.5620358276068355   T   T   T
 -0.2321054702794326  0.2392601861852303  0.8739356370044488   T   T   T
  0.5235734037759600  0.0679218491801997  0.0975234525522722   T   T   T
  0.6026145184349169  0.2323500457881594  0.5276222908603667   T   T   T
  0.4436865308402049  0.1483336876844636  0.6057859546095803   T   T   T
  0.5373904545515227  0.2264716145888906  0.9924356764767583   T   T   T
  0.1056651315744319  0.2273281490935282  0.2242359480421143   T   T   T
  0.1661821430868923  0.2151081059948552  0.4305584028253066   T   T   T
  0.1878144910465356  0.2543680700482676  0.7092448591811149   T   T   T
  0.1480683439476157  0.2088086468336045  0.9328627479428221   T   T   T
  0.6227731821910978  0.2622446282335935  0.2338029084049680   T   T   T
  0.6239675409545029  0.2239438045869572  0.4432540360765760   T   T   T
  0.6945267485519091  0.3029984429478790  0.6275963465401966   T   T   T
  0.6224530195081457  0.2190547166154420  0.8790184797494131   T   T   T
  0.5113704224670226 -0.0191877483940214  0.3099375299574461   T   T   T
  0.5455752214869174  0.0094499894832089  0.4924655208992597   T   T   T
  0.5470265396766762  0.0073374642980085  0.7351383946900917   T   T   T
  0.4062895026612374  0.0164068233329388  0.9389640669898098   T   T   T
  0.9376550959542619 -0.0466859856265291  0.3274122564583342   T   T   T
  0.9778977905270773  0.0034619562987033  0.4041556032350198   T   T   T
  1.0360080839619594  0.0074052581692849  0.7578185391588879   T   T   T
  0.8186690208386199 -0.0171872674372222  1.0410176135330709   T   T   T
  0.1827297667373859 -0.0072484832300207  0.1642616589652550   T   T   T
  0.1612635717454131  0.0200089153961888  0.4696546635711993   T   T   T
  0.2085804329514545 -0.0132889434129141  0.6903194076426177   T   T   T
  0.3086930675652366  0.0034579673366071  1.0012834588265300   T   T   T
  0.7279168220989072 -0.0279059084913387  0.1786588666920587   T   T   T
  0.6503067489852015 -0.0277205732607918  0.4737049669423944   T   T   T
  0.8833434400820599  0.0036338635549679  0.6611273667251294   T   T   T
  0.7190120510446782  0.0581448555112288  1.0434121244504844   T   T   T
  0.2490692767342779  0.2411504902276602  0.1809409089844880   T   T   T
  0.2555393806954347  0.2237880195277220  0.4498888306813042   T   T   T
  0.2696516905074040  0.2188005540547289  0.6784763646742326   T   T   T
  0.3071507786178279  0.2427846904589501  0.8857013782908724   T   T   T
  0.7353550102041679  0.2280914422744309  0.1461336175415400   T   T   T
  0.7627570674667432  0.2658027609760726  0.4078309251755525   T   T   T
  0.7503626535902175  0.2526663764308504  0.6830137021229691   T   T   T
  0.8476514800006691  0.2303597574227494  0.9349645293378402   T   T   T
 -0.0906876717412417 -0.0530949152297806  0.6103572661742767   T   T   T
  0.0485205799079145  0.0019973159570106  0.3976029900164869   T   T   T
 -0.1180209537463516 -0.1512384939404756  0.1987521168422323   T   T   T
  0.0379255292605271  0.0279178112537761  0.8899102711533395   T   T   T
  0.0521902652022940 -0.0058210912975750  0.0114264983988160   T   T   T
  0.5706295701775083  0.0160574398231608  0.3665651348173729   T   T   T
  0.6186652552679682  0.0301383602302325  0.5274399447204815   T   T   T
  0.5398760606771675  0.0318908674228409  0.8792980417892911   T   T   T
  0.3898736455628916 -0.0416686356926500  0.1954785511449302   T   T   T
  0.2950457519025840  0.0052324133612252  0.4035812795661771   T   T   T
  0.4118023132267801 -0.0294914284796532  0.6831666315701251   T   T   T
  0.2533712887718847 -0.0019419087345649  0.8811137890118103   T   T   T
  0.8829705061750901  0.0257431815154115  0.1632413117146254   T   T   T
  0.8789519986308280  0.0349627409898856  0.3769510899843037   T   T   T
  0.9054777521486944 -0.0556101591277905  0.7110796095097840   T   T   T
  0.8619605968484322  0.0266797025860143  0.8478599940715068   T   T   T
  0.3649532896068451  0.2344885794417103  0.1996487236275000   T   T   T
  0.3837284798858877  0.2076824081455489  0.3693917056803258   T   T   T
  0.2769270195254986  0.2159360655560688  0.7664293837725309   T   T   T
  0.3734186984083427  0.2220122826149213  0.9217583481181076   T   T   T
  0.8120568579154258  0.2287894252978823  0.2588586480609174   T   T   T
  0.8546031892218724  0.2998056574356507  0.4063100497422220   T   T   T
  0.8009328268039339  0.2079045780553992  0.7575618427119201   T   T   T
  0.9989073321173024  0.2166969318435176  0.9225818298674121   T   T   T
  0.4088223976669816  0.3395700533814177  0.4399015831885483   T   T   T
  0.4886732322539328  0.3758549762222316  0.4062096161587537   T   T   T
  0.4156958451481285  0.3104122765803164  0.5622089913013446   T   T   T
  0.4932960473322479  0.3275324504059874  0.6119169318157783   T   T   T
  0.4563989527984524  0.3678119456806092  0.4503085591928693   T   T   T
  0.4581178291620407  0.3465328164822474  0.5712389287314649   T   T   T
  0.4157815246627352  0.1902490541782115  0.0421079745427771   T   T   T
  0.3352431389963783  0.2074391452537069  0.3395582653946919   T   T   T
  0.4023001082486874  0.1952458700848321  0.5689048344930361   T   T   T
  0.3517829651808988  0.1937852642769930  0.8249091028359286   T   T   T
  0.9077187973820979  0.1919732123339523  0.0449910539987946   T   T   T
  0.8384808901260142  0.2169574831608338  0.3452545094400361   T   T   T
  0.9226472293818500  0.1780326023929575  0.5410789806813280   T   T   T
  0.8196144758797063  0.2245746959496910  0.8360363318130883   T   T   T
  0.1628080449858687  0.1566172035751185  0.0690123823373416   T   T   T
  0.0744940695691921  0.2095012057152852  0.3470017976611873   T   T   T
  0.1484257107095240  0.1639504657385809  0.5751812696884201   T   T   T
  0.0679590595075944  0.2290696408679824  0.8381326122224474   T   T   T
  0.6160745999035168  0.1826763819851343  0.0785776705176763   T   T   T
  0.5450140375546730  0.2093884746773859  0.3077846664382501   T   T   T
  0.5833827706777086  0.1938393953803654  0.5713830804819935   F   F   F
  0.5681802050359230  0.2297094629092529  0.8322848215775537   T   T   T
  0.1780277298807685 -0.0081842251743777  0.0340023546045072   T   T   T
  0.2364542112019708  0.0286887027196449  0.3242091715466244   T   T   T
  0.1618913148656467 -0.0033825573678590  0.5385395895282988   T   T   T
  0.2607772373596287  0.0207780968161806  0.8364370811001856   T   T   T
  0.6495733755755886  0.0042392328734896  0.0253698181633166   T   T   T
  0.7432405318598930  0.0324653857399431  0.3323793799984436   T   T   T
  0.6471239720353049 -0.0297084917615779  0.5290731648469281   T   T   T
  0.7571763919847684  0.0284611789371573  0.8278152655779580   T   T   T
  0.3766771985718904 -0.0167257524796524  0.0660371941757899   T   T   T
  0.4548243379193123  0.0015893489168997  0.3336850508558409   T   T   T
  0.3739852309368458 -0.0099040894773547  0.5383370625624513   T   T   T
  0.4665755759015886  0.0502112048363344  0.8236454161712798   T   T   T
  0.8720552755762375  0.0020477785003633  0.0593114184038014   T   T   T
  0.9751681587752464  0.0177992567309287  0.3438492213736509   T   T   T
  0.8663612249170861 -0.0699093350967777  0.5448895873907647   T   T   T
  0.9971931338365478  0.0588953772336816  0.8024704363513776   T   T   T
  0.0509089325806376  0.2434731003966674  0.2258574969018914   T   T   T
  0.0699251624205629  0.2022565192232275  0.4891346108826600   T   T   T
  0.0572602857364390  0.2640837882109688  0.6811030753528333   T   T   T
  0.0832055301311397  0.1981778970581966  1.0039345658163465   T   T   T
  0.5680805902558772  0.2703994674114368  0.2160418865453387   T   T   T
  0.5575034952284190  0.2079520909256146  0.4615104121634142   T   T   T
  0.5690176587497755  0.2784933932919075  0.6822216716671060   T   T   T
  0.5714360632582712  0.1980230248103927  0.9749764827737186   T   T   T
  0.1860841234172894  0.2205706487254623  0.1872063596005471   T   T   T
  0.1842127618846319  0.1987607333946967  0.3951197818645866   T   T   T
  0.2001379877421285  0.2354139601924685  0.6633101054954040   T   T   T
  0.1766242516114343  0.1994101786903982  0.8898283732749366   T   T   T
  0.6852286096192933  0.2194249224991236  0.1667065681454346   T   T   T
  0.6877289608819925  0.2125614811725605  0.4004498673768707   T   T   T
  0.7012902718437898  0.2827858627788831  0.6697312390384017   T   T   T
  0.6852679256161104  0.1922842535435104  0.8825045725942688   T   T   T
  0.5854413809581561  0.0428482245858554  0.2517213787776607   T   T   T
  0.5028816421315990  0.0149004976594585  0.4533969907426746   T   T   T
  0.5486919899892317 -0.0395082812806513  0.7418342626753964   T   T   T
  0.4934797393539977  0.0269832647262386  0.9626436917412398   T   T   T
  1.0641515314780803  0.0671299066364270  0.2241929197667311   T   T   T
  0.9849639575517667  0.0390789248256872  0.4543944815149283   T   T   T
  1.0266358678447984 -0.0746197608041279  0.7759550978539803   T   T   T
  0.9856535046012144 -0.0027785065927803  0.9379636054255218   T   T   T
  0.2189537148416776  0.0517366768635901  0.1720644192835281   T   T   T
  0.2640194147587028  0.0592489692088208  0.4825852032568462   T   T   T
  0.1984317785697755  0.0323163332861253  0.6736129916456183   T   T   T
  0.2960849985720956  0.0310644523530102  0.9642118379011329   T   T   T
  0.7181987764276078  0.0180650866395539  0.1586501776576928   T   T   T
  0.7637237862780450  0.0371454597933513  0.4712119688118457   T   T   T
  0.6897940104356260  0.0247869640658910  0.6778368603979743   T   T   T
  0.7853729851454965  0.0626622974410336  0.9827029480662096   T   T   T
  0.3186389762541857  0.2201353679960628  0.2233513809422219   T   T   T
  0.3160582089903706  0.2306738767092375  0.4505770027878846   T   T   T
  0.3037218274632557  0.2007000121886398  0.7272912662724250   T   T   T
  0.3077180558283948  0.2338274463879217  0.9373616756307668   T   T   T
  0.8177774341611048  0.2081152956089835  0.2163573970136243   T   T   T
  0.8177693137734258  0.2686373044898896  0.4299628317208727   T   T   T
  0.7735805030170900  0.1778567908769233  0.7284443639403470   T   T   T
  0.8104421066754055  0.2375859927402740  0.9673137564588666   T   T   T
  0.0478031118805265  0.0041650721291284  0.0723075392978195   T   T   T
  0.1001322224589603  0.0280354666854875  0.3804881803387308   T   T   T
 -0.0305965512096135  0.0060373035494498  0.5673300736962779   T   T   T
  0.0945927167324941  0.0424657297228906  0.8762207555541444   T   T   T
  0.5139744045096918 -0.0153205442932809  0.1327791412676009   T   T   T
  0.6246957449817230  0.0273865593714957  0.3870015398904252   T   T   T
  0.5263411004614124  0.0010147939681499  0.5898344902856134   T   T   T
  0.5969798037237140  0.0371232858058673  0.8781384927820574   T   T   T
  0.3761354769212969 -0.0045872164358566  0.2260829337658791   T   T   T
  0.3532433268508101  0.0254133511484218  0.4180807862634592   T   T   T
  0.3786135812831805  0.0094578381241600  0.6865917441162123   T   T   T
  0.3812241509678019  0.0429421572991760  0.9026608943869442   T   T   T
  0.8721048690482052  0.0159734263203053  0.2153255621666137   T   T   T
  0.8473746674974978  0.0476745239570634  0.4146185741624010   T   T   T
  0.8827124313281496 -0.0090052666554624  0.7112258042707104   T   T   T
  0.8588508201714247  0.0359933873624274  0.8979453215037247   T   T   T
  0.4327482065606258  0.2240393733531292  0.1706620426130522   T   T   T
  0.4448723160293826  0.1859397911007110  0.3985363150810198   T   T   T
  0.4796982452155122  0.1724913568454254  0.6898473259489195   T   T   T
  0.4383535509883220  0.2179567002187721  0.9086850071405506   T   T   T
  0.9827622815655859  0.1869121800841798  0.1523187966670299   T   T   T
  0.9389076065070320  0.2150207414053760  0.4185706300239072   T   T   T
  0.9208397840453439  0.2183674946540762  0.6587367292446735   T   T   T
  0.9454523858296490  0.2012530324166928  0.9231007326998421   T   T   T
  0.6002994658779111  0.3618772041532330  0.5021951838507867   T   T   T
 
  0.10668137E-01 -0.91359635E-02 -0.25346397E-02
  0.41157005E-02  0.11103154E-01  0.11346440E-01
  0.35805613E-01 -0.14010931E-01 -0.80950008E-02
  0.29328810E-01  0.14936893E-01 -0.10848051E-01
  0.25533708E-02 -0.40666951E-01  0.13890554E-01
  0.25172056E-01  0.32779975E-01  0.63797385E-02
  0.15608119E-01  0.12644363E-01  0.33726892E-02
  0.24706222E-01  0.15100603E-01  0.72509331E-02
  0.16424013E-02  0.85857284E-02  0.34442722E-01
  0.12575149E-01 -0.11173744E-01 -0.83676631E-02
  0.17767940E-02 -0.83831309E-02 -0.12213064E-01
  0.94097840E-02 -0.16948000E-01 -0.12541447E-01
 -0.84966746E-02  0.84833606E-02 -0.13408648E-01
  0.15564778E-01 -0.96642334E-02 -0.92001439E-02
  0.14254241E-01  0.20380531E-01 -0.25258567E-02
  0.46186386E-02 -0.23786947E-02 -0.18213832E-01
  0.15211997E-01 -0.96783976E-02 -0.23137597E-01
 -0.12462972E-01 -0.95873916E-02 -0.37667612E-02
  0.64821132E-02 -0.19714167E-01  0.30467898E-02
  0.73555942E-02 -0.53675101E-02 -0.15480869E-01
  0.17611436E-02 -0.28743454E-01  0.53480278E-02
 -0.11693554E-01  0.10911575E-01 -0.22260777E-02
  0.15100939E-01 -0.10672348E-01  0.46580814E-02
 -0.14124366E-01  0.15304218E-01 -0.22376868E-01
 -0.89990809E-02  0.16088189E-01 -0.17729673E-01
  0.58176797E-02 -0.27829120E-01 -0.25269516E-01
 -0.33084686E-02  0.28107068E-02 -0.55726505E-02
  0.53918392E-02 -0.96169736E-02 -0.24012825E-02
  0.96498119E-02  0.17636657E-01  0.19120662E-03
  0.20061256E-01 -0.25049054E-01  0.16641014E-01
 -0.10527398E-01  0.47005917E-02 -0.21271383E-01
  0.30827922E-02 -0.13806243E-01 -0.13131985E-01
 -0.10158584E-01 -0.19348903E-01  0.18271958E-01
  0.20510962E-01 -0.19361562E-01  0.19143962E-01
 -0.21716734E-01  0.10847003E-01  0.18369873E-01
  0.12888938E-01  0.40489088E-02  0.11038413E-01
  0.89136205E-02  0.17524391E-02 -0.20127591E-02
  0.12124688E-01  0.71799476E-02  0.39400431E-02
 -0.17679926E-02  0.60598112E-02  0.21864172E-02
  0.20506830E-01 -0.14837415E-01  0.28573346E-02
 -0.20732766E-01  0.18713093E-01 -0.95164295E-02
  0.83923150E-02  0.77917861E-02 -0.36559249E-01
 -0.45251375E-02 -0.29665617E-01 -0.30086804E-02
  0.80876665E-02 -0.67294001E-02 -0.16310285E-01
 -0.42877259E-04  0.44543933E-03  0.12201747E-01
 -0.27070724E-02  0.27356946E-01 -0.86276930E-02
  0.71135928E-02 -0.11346450E-02 -0.20668524E-01
  0.28521378E-02  0.50377254E-03 -0.17472711E-01
 -0.14727164E-01 -0.82211239E-03  0.31194257E-01
 -0.10319270E-01 -0.53769723E-01  0.32962710E-02
 -0.23139844E-01 -0.74820891E-02  0.30030283E-02
  0.48048262E-02  0.14618087E-01  0.12911505E-01
  0.36338437E-02 -0.22363093E-01  0.30194570E-02
  0.10731350E-01 -0.12510065E-01  0.50935732E-02
 -0.15923327E-01 -0.29974576E-01  0.94295883E-02
 -0.29378291E-02  0.15722679E-02  0.17936075E-01
 -0.12265617E-01  0.39583648E-03 -0.13219999E-02
 -0.15393237E-01 -0.98331685E-02 -0.65878084E-02
 -0.47383787E-02  0.43106098E-02 -0.20443293E-01
 -0.80913307E-02 -0.25560892E-02  0.70091907E-02
  0.38985303E-02 -0.16392779E-01 -0.28381832E-01
  0.64297784E-02 -0.95455724E-03 -0.83944019E-03
  0.21213949E-02  0.12791304E-01 -0.10894039E-01
  0.85055989E-02  0.52150747E-02  0.19418224E-02
 -0.74805825E-02  0.32554799E-01 -0.15078764E-01
 -0.15633231E-01 -0.41303670E-02 -0.21276227E-01
  0.20977903E-02  0.32298417E-01  0.74883567E-02
  0.17372744E-01 -0.31121533E-02 -0.58433741E-02
 -0.24403273E-02  0.98461531E-02  0.31033061E-01
 -0.18746954E-01  0.64219396E-02 -0.33437349E-01
 -0.12231889E-01  0.31045158E-01 -0.60720921E-02
  0.93472771E-02 -0.60679242E-02 -0.22606382E-01
  0.87058645E-02  0.12312315E-01  0.15197010E-01
  0.22791701E-02  0.27888309E-02  0.35849488E-02
  0.59878358E-02  0.17357799E-01 -0.45365032E-02
 -0.89712744E-02  0.51212357E-02  0.60732506E-02
 -0.58342937E-02  0.85788796E-02 -0.30778748E-01
 -0.29563026E-01 -0.16876779E-02  0.18678786E-01
  0.56068706E-02 -0.38689437E-02  0.26085037E-01
  0.32201162E-02  0.23662880E-02 -0.29264887E-02
  0.22087508E-01 -0.27287074E-01 -0.14321094E-01
  0.19691687E-01  0.76276630E-02 -0.79569700E-02
  0.18975317E-02 -0.15294227E-01  0.58544740E-02
 -0.46166175E-02  0.21081926E-01 -0.37724384E-01
 -0.66937664E-03  0.28471843E-02 -0.30677113E-01
  0.24111103E-01  0.19630598E-01 -0.91956518E-02
 -0.20870094E-01 -0.15431802E-01  0.46979444E-04
  0.94800010E-02  0.19179464E-01 -0.13300565E-01
  0.69098818E-03  0.13578797E-01 -0.11295529E-01
  0.13880924E-01 -0.23366185E-02  0.17775663E-01
 -0.15352341E-01 -0.12838728E-01 -0.20517321E-01
 -0.21390505E-02 -0.95232898E-02 -0.93145058E-02
 -0.86948831E-02 -0.21586042E-02 -0.82570382E-02
  0.32861690E-02  0.76606070E-02 -0.15200790E-01
 -0.13494799E-01  0.49889455E-01 -0.25570166E-01
 -0.22933179E-01 -0.18756679E-01  0.27436713E-02
 -0.78495720E-03  0.18383128E-01 -0.99361073E-02
  0.25683945E-01 -0.16622970E-01 -0.11187996E-01
 -0.30612329E-01 -0.95043784E-02 -0.20972130E-01
  0.20883243E-01  0.34233593E-01 -0.21876046E-01
 -0.21980437E-01 -0.23055616E-01  0.97144920E-02
  0.32400320E-01 -0.17015699E-02  0.10419768E-01
  0.40821491E-02 -0.48591999E-01 -0.12799792E-01
  0.22843291E-01  0.29818490E-01 -0.36144752E-02
  0.26335258E-01  0.21668087E-01  0.22462154E-02
 -0.45195831E-02 -0.97490276E-02 -0.92428224E-02
  0.17784875E-01  0.43526006E-01  0.89944011E-02
 -0.16041520E-01  0.38707276E-02  0.23510278E-01
  0.96068379E-03  0.20306554E-01 -0.14804491E-01
  0.00000000E+00  0.00000000E+00  0.00000000E+00
  0.14982185E-01  0.10480144E-01  0.23547476E-02
  0.25555653E-04  0.72720396E-02 -0.18822024E-01
  0.74596821E-03 -0.79919642E-02  0.19456717E-01
  0.16721335E-01 -0.54343311E-02 -0.21812804E-01
 -0.31936524E-01 -0.67447324E-02 -0.46023656E-02
  0.20218759E-01  0.36702647E-02  0.86271564E-02
 -0.15053510E-01 -0.16950376E-01  0.22870788E-03
  0.51937801E-02  0.98626993E-02 -0.19216862E-01
 -0.75866739E-02 -0.21046722E-01 -0.55731637E-02
 -0.16505011E-01  0.96084329E-02  0.11450332E-01
 -0.15264704E-01  0.13543230E-01  0.19435297E-02
 -0.13404295E-01 -0.10563074E-01 -0.46879358E-02
 -0.17547047E-01  0.90109424E-02 -0.28485682E-02
 -0.24067408E-01 -0.11066773E-01 -0.88061470E-02
  0.15269078E-01 -0.15095953E-02  0.10394573E-01
 -0.27485080E-01 -0.15766566E-01  0.17644390E-01
 -0.51836586E-02 -0.97173404E-02 -0.10288629E-01
 -0.21169809E-01  0.82644885E-02  0.40195000E-02
  0.49648795E-02  0.21724631E-02  0.16699758E-01
  0.69203080E-02  0.58319605E-01 -0.50523155E-01
 -0.28840090E-01 -0.37801801E-02  0.32499165E-01
 -0.38302198E-01  0.45511153E-01 -0.34397443E-01
  0.94038702E-01  0.15411623E-01  0.74882833E-02
 -0.76417158E-02 -0.45649367E-01 -0.90999100E-01
 -0.19488718E-01 -0.94599530E-01  0.65379822E-01
 -0.34218243E-01  0.27267183E-01 -0.28354825E-01
 -0.60742990E-01  0.26899747E-01  0.90875143E-01
  0.36129308E-02  0.71064807E-02 -0.42094081E-03
 -0.23191250E-01  0.38203719E-01  0.15560480E+00
 -0.57933670E-01 -0.11418315E-01 -0.99404169E-01
  0.82880934E-01  0.31221468E-01  0.71143889E-01
 -0.86272991E-02  0.41131874E-01  0.14864595E-01
 -0.82984087E-02 -0.43735298E-02 -0.39824398E-01
  0.59682726E-01  0.21243680E-01  0.13080040E-01
  0.33469273E-02  0.39763584E-01 -0.78010186E-02
 -0.47554816E-01  0.18648398E-01  0.27390399E-01
  0.44179126E-02 -0.36764875E-01  0.42181383E-01
 -0.21933050E-01  0.11972530E-01  0.12652888E-01
 -0.19281404E-01 -0.37360146E-01  0.16608292E-01
 -0.63545826E-01 -0.31866943E-01  0.36940001E-01
 -0.31028442E-01 -0.68053968E-01  0.11942169E+00
  0.10545477E-01 -0.13935384E-01  0.58576039E-01
 -0.54498211E-02 -0.38490430E-01  0.14273330E-01
 -0.11082816E+01  0.43524254E-01 -0.40988199E+00
  0.70004397E-01 -0.16868168E-01  0.16645278E-01
 -0.55517028E-02  0.12638845E-01  0.93204331E-01
  0.10356868E-01  0.11307012E-01  0.67431150E-01
  0.28088367E-01 -0.31229697E-01  0.21506364E-01
 -0.18575653E-01 -0.42490036E-01  0.12700766E+00
 -0.60772946E-02  0.21101651E-01  0.37684132E-01
  0.53053073E-01  0.20922316E-01  0.59148906E-01
 -0.48179974E-01  0.47325379E-01  0.54469903E-01
  0.19820284E-01  0.27026473E-02 -0.45878778E-01
 -0.10106599E+00  0.13428091E+00 -0.15877622E-03