C H O                                   
   1.00000000000000     
    17.0814999999999984    0.0000000000000000    0.0000000000000000
     0.0000000000000000   20.0000000000000000    0.0000000000000000
     0.0000000000000000    0.0000000000000000   19.7743000000000002
   C    H    O 
   128    24    38
Selective dynamics
Direct
  0.0955063144816949  0.1220013162580132  0.0406254482855189   T   T   T
  0.0959143194593814  0.1317585715852239  0.2857887930965103   T   T   T
  0.0959853549316126  0.1218126562656603  0.5405832038134156   T   T   T
  0.0959062492985818  0.1317551320855377  0.7859385824474973   T   T   T
  0.5955079258016484  0.1317075114277845  0.0403353065643641   T   T   T
  0.5958403434752367  0.1316825550935554  0.2859268317148783   T   T   T
  0.5956620069454174  0.1222821737080726  0.5393483613834522   T   T   T
  0.5956683070673471  0.1310730477942717  0.7856850900886421   T   T   T
  0.1059885165743004  0.1026605069870168  0.1634792137449375   T   T   T
  0.1011357128438884  0.1174800192191304  0.4072649919067388   T   T   T
  0.1061661386663435  0.1028777035770863  0.6632550725645504   T   T   T
  0.1058209044079556  0.1027130053453118  0.9084801254328657   T   T   T
  0.6054228376398256  0.1022595198993296  0.1632603131058799   T   T   T
  0.5964183690662751  0.1028208758728762  0.4082239747981588   T   T   T
  0.6054870172373413  0.1021930839924985  0.6633525070410236   T   T   T
  0.5955523521528574  0.1227667492268072  0.9085120170035557   T   T   T
  0.3508016491926868  0.1224059977958358  0.0364701131577502   T   T   T
  0.3455098575660822  0.1219209794780054  0.2859580711031103   T   T   T
  0.3454144581426574  0.1220469310029820  0.5406310519639153   T   T   T
  0.3563264909599219  0.1228699850850689  0.7857174981784286   T   T   T
  0.8510712462230415  0.1223527325940009  0.0362027058779643   T   T   T
  0.8468732558685726  0.1223869206674471  0.2856111341059220   T   T   T
  0.8530139097189681  0.1223550301576101  0.5357247925090756   T   T   T
  0.8467537952984313  0.1223718130061290  0.7859246648007502   T   T   T
  0.3458959081884134  0.1126424172464291  0.1634680810464816   T   T   T
  0.3509387443840071  0.1024260806012820  0.4123158097973457   T   T   T
  0.3557414654279482  0.1026671455741346  0.6631782084193676   T   T   T
  0.3460084733206871  0.1122301617624404  0.9093067424423213   T   T   T
  0.8556771476546554  0.1023527841408363  0.1632658409076593   T   T   T
  0.8455506031168113  0.1221697145513850  0.4082215703837495   T   T   T
  0.8552638105202601  0.1022298347340585  0.6632495056251370   T   T   T
  0.8460327662641910  0.1026423234763139  0.9083950308133912   T   T   T
  0.1788352202688212  0.1025367972621655  0.0393816643052822   T   T   T
  0.1786777669149200  0.1027043698270667  0.2857123114258979   T   T   T
  0.1790880072157470  0.1030990422274248  0.5404942041649540   T   T   T
  0.1787441486664320  0.1027505376313760  0.7857014619085738   T   T   T
  0.6787978073453487  0.1057372489943484  0.0373101525685192   T   T   T
  0.6786882732494374  0.1028091190258891  0.2857463120203673   T   T   T
  0.6793480356665347  0.1121315658518947  0.5406970477401007   T   T   T
  0.6787889834927319  0.1028258632892366  0.7857059245778577   T   T   T
  0.1893390639481367  0.1322033616417346  0.1629950074111439   T   T   T
  0.1793478993737694  0.1129188604473792  0.4084685390799889   T   T   T
  0.1895827501812115  0.1320892574245176  0.6629425867899942   T   T   T
  0.1896535094545762  0.1218705340245089  0.9086083673377292   T   T   T
  0.6895412065524340  0.1130067712243760  0.1635432252180853   T   T   T
  0.6890436187709824  0.1322641663655312  0.4087735761655425   T   T   T
  0.6899841860109387  0.1122325457599003  0.6631531697589064   T   T   T
  0.6800301870220974  0.1326895202243079  0.9081619524151868   T   T   T
  0.4346314883198117  0.1075981228032339  0.0383141826499016   T   T   T
  0.4292522853561697  0.1119089778522670  0.2858128416121617   T   T   T
  0.4294059619293115  0.1130491279835073  0.5407841554952989   T   T   T
  0.4399115162981419  0.1123131651061519  0.7857042757278530   T   T   T
  0.9397155808347590  0.1121614351589668  0.0314851989295387   T   T   T
  0.9382488702460015  0.1121295108390174  0.2857598752171830   T   T   T
  0.9398410174985429  0.1122027909500809  0.5394979263879253   T   T   T
  0.9380729381406144  0.1121252778561566  0.7856260506488598   T   T   T
  0.4291204764544249  0.1324442195637085  0.1632689098604839   T   T   T
  0.4341934535036638  0.1226914842248309  0.4143858258437768   T   T   T
  0.4386030337666095  0.1324117923180995  0.6632840661688043   T   T   T
  0.4293997072327078  0.1321536220964298  0.9083106623790900   T   T   T
  0.9385897322651006  0.1324469063239843  0.1631195648885564   T   T   T
  0.9288569577484908  0.1225038847993830  0.4097986853582951   T   T   T
  0.9343899000742254  0.1316863625503786  0.6631639811739852   T   T   T
  0.9290818462185572  0.1322944723068677  0.9083124125531276   T   T   T
  0.2259577230612261  0.1025539259423521  0.1018578498677292   T   T   T
  0.2256479995956604  0.1116282361274688  0.3470840637434906   T   T   T
  0.2262058927874941  0.1032644144169555  0.6015960705236411   T   T   T
  0.2261631747100576  0.1029195578382986  0.8468970144420692   T   T   T
  0.7262405626612530  0.1026866508206769  0.1016554560326288   T   T   T
  0.7260235116946349  0.1030192450067734  0.3472585205106942   T   T   T
  0.7258297149850819  0.1035722883469804  0.6017962829890011   T   T   T
  0.7255381626126131  0.1031782756959161  0.8471664928610855   T   T   T
  0.2259642760492498  0.1120374491785900  0.2246302085449316   T   T   T
  0.2248874962811234  0.1121522874810077  0.4706993046090890   T   T   T
  0.2269828934971237  0.1128561075225912  0.7247177835442816   T   T   T
  0.2254449680698533  0.1127945912764129  0.9695736596622381   T   T   T
  0.7256663021848229  0.1155657760098086  0.2239737258618336   T   T   T
  0.7260113154954602  0.1126957861377909  0.4792743563326267   T   T   T
  0.7264311009911968  0.1126654073812668  0.7245185094366776   T   T   T
  0.7251040375532256  0.1126710253412438  0.9701179713517427   T   T   T
  0.4759557259999806  0.1130360822431238  0.1020505055382907   T   T   T
  0.4755869094662563  0.1220106307335032  0.3473604185615088   T   T   T
  0.4762157487331372  0.1129161074175420  0.6016061037401875   T   T   T
  0.4761359726617423  0.1128019145591348  0.8469344669687332   T   T   T
  0.9764371811257567  0.1126667207370701  0.1005537797175233   T   T   T
  0.9761900455711090  0.1163408747928901  0.3498069905934520   T   T   T
  0.9763732733648950  0.1129413910862950  0.6017370853557928   T   T   T
  0.9763810232159520  0.1132878127954434  0.8477999088098818   T   T   T
  0.4761348794789620  0.1129810272310333  0.2244167716762373   T   T   T
  0.4752615463737856  0.1220898662367933  0.4784109541814153   T   T   T
  0.4769285418056774  0.1128482464328100  0.7245597871938207   T   T   T
  0.4759807630958552  0.1023907901957387  0.9694593211186061   T   T   T
  0.9773332707936705  0.1129306256041859  0.2242931941376863   T   T   T
  0.9750431824273392  0.1128138621780135  0.4697219634371174   T   T   T
  0.9770900161697728  0.1129690421501099  0.7242451069355184   T   T   T
  0.9757932090826444  0.1127842790344452  0.9696009649593377   T   T   T
  0.0591927036449909  0.1217110831304406  0.1018237505710489   T   T   T
  0.0594472601032721  0.1321115469006908  0.3470466610064720   T   T   T
  0.0592405305811320  0.1219399525289493  0.6018830111804131   T   T   T
  0.0597285927353102  0.1320330430644573  0.8470435272204692   T   T   T
  0.5596691761230831  0.1318794789253326  0.1018984651070511   T   T   T
  0.5592592269784286  0.1323358607862340  0.3469047117152277   T   T   T
  0.5589108053576248  0.1217528884678300  0.6017953838760409   T   T   T
  0.5578215792194928  0.1224005326867466  0.8468892255326822   T   T   T
  0.0588335948436697  0.1224274778585537  0.2244638999297647   T   T   T
  0.0590107911450213  0.1328109670897829  0.4695942067243171   T   T   T
  0.0587333670081169  0.1221368488629896  0.7243894024054671   T   T   T
  0.0597987054632486  0.1326278804161034  0.9695423769616540   T   T   T
  0.5579508664289304  0.1224571322167296  0.2244197008899032   T   T   T
  0.5589760234347626  0.1224734059052214  0.4712251763742627   T   T   T
  0.5591310137974305  0.1225189743198871  0.7245399813717113   T   T   T
  0.5591893686470472  0.1230816646186868  0.9697051243535639   T   T   T
  0.3088872530705971  0.1219147708680587  0.1016247450884665   T   T   T
  0.3093229029500248  0.1221609084578209  0.3469683363438759   T   T   T
  0.3087647594521165  0.1215200462801917  0.6018507211119930   T   T   T
  0.3090838808605913  0.1217705149168275  0.8469069528320848   T   T   T
  0.8097813210135442  0.1220878620305800  0.1018485385194537   T   T   T
  0.8090769972781878  0.1220109067658300  0.3468891888538883   T   T   T
  0.8094928247039276  0.1220223185363235  0.6018014544790337   T   T   T
  0.8088777310253860  0.1218321517821535  0.8467307841823409   T   T   T
  0.3079711443103434  0.1123087980403031  0.2243755969249397   T   T   T
  0.3041255308108899  0.1173346480060460  0.4773567655271347   T   T   T
  0.3089072141944111  0.1217432933948396  0.7245660886330725   T   T   T
  0.3092319519085553  0.1123963291065859  0.9695522952440813   T   T   T
  0.8093756807415361  0.1220958666183179  0.2246130670402684   T   T   T
  0.8087161394115499  0.1124328883509838  0.4707144125008923   T   T   T
  0.8089402838040294  0.1219981460950364  0.7245509139964764   T   T   T
  0.8031654057467484  0.1173331356559082  0.9714984469438902   T   T   T
  0.0026891477610905  0.2201962007317252  0.4529999614002102   T   T   T
  0.0149275808527304  0.2211755313366316  0.9514360289159924   T   T   T
  0.1569610389281399  0.2224351307305946  0.1302696106142861   T   T   T
  0.1565417243518867  0.2227902757035403  0.6307900600552888   T   T   T
  0.6576761651797434  0.2218829920569625  0.3805858450220722   T   T   T
  0.6561791299617430  0.2241645055824746  0.8785150544121468   T   T   T
  0.4322477098374822  0.0175989882922890  0.9520421646006519   T   T   T
  0.0508957061246786  0.0204811972407677  0.1829210947299988   T   T   T
  0.0509893983184580  0.0226359824259478  0.6794416466183262   T   T   T
  0.0604351189351122  0.0116897179782130  0.9282644057900751   T   T   T
  0.5506987212124433  0.0188366436116625  0.1814194464480083   T   T   T
  0.5607020316580029  0.0113506633178379  0.4282799890589110   T   T   T
  0.5505531406128237  0.0179692420412946  0.6812419084748143   T   T   T
  0.3005795633421772  0.0178783709148365  0.4258866720172943   T   T   T
  0.3043528360853133  0.0160284549944767  0.6781868074696354   T   T   T
  0.8044290628250462  0.0159373829400407  0.1782158138471527   T   T   T
  0.8044123390119526  0.0159603224596529  0.6782167445501855   T   T   T
  0.8005953574785628  0.0179016289711273  0.9262167237434406   T   T   T
  0.3944680890016369  0.2240378589415754  0.1831622050809047   T   T   T
  0.3902128883299635  0.2210204829043605  0.6813741275621650   T   T   T
  0.3881761519731220  0.2192189673452947  0.9333055622691966   T   T   T
  0.8901922454734721  0.2210516270162793  0.1812132359140461   T   T   T
  0.8902887251079946  0.2221748609883602  0.6802267229197854   T   T   T
  0.8880363151572093  0.2191930117377230  0.9333015311692974   T   T   T
  0.3332428098645765  0.1837774153856691  0.0713799627312564   T   T   T
  0.3332647359598159  0.1838107726722375  0.8264247593357366   T   T   T
  0.8332505636483855  0.1836652044509605  0.0714266074714895   T   T   T
  0.8332332145724749  0.1836725980757053  0.5714097933599814   T   T   T
  0.2023629178177528  0.0408630455083034  0.0714426822961920   T   T   T
  0.2023321423517979  0.0409334764965290  0.3264449868286161   T   T   T
  0.2023442925850323  0.0407894537184308  0.8264261968922788   T   T   T
  0.7023260885022764  0.0409187636439550  0.0713846177083134   T   T   T
  0.7023468889284568  0.0408674497338868  0.3264305687910494   T   T   T
  0.7022904028167671  0.0408298345028805  0.8264837039966821   T   T   T
  0.4641675438189906  0.0509448902282731  0.0715460475621399   T   T   T
  0.4641906771817761  0.0511057061634936  0.3264780880428137   T   T   T
  0.9642001640649862  0.0509648221331111  0.3264861676746415   T   T   T
  0.9642030179090996  0.0508906126820379  0.8264678332571894   T   T   T
  0.0593506982706014  0.2043061956308703  0.4592049661831404   T   T   T
  0.0712941059575494  0.2040945639889930  0.9591806616309346   T   T   T
  0.2022754415183679  0.2040967659704420  0.1530861451122837   T   T   T
  0.2022525969427654  0.2041508705937672  0.6530869552967886   T   T   T
  0.7021897259596579  0.2040296052778292  0.4081041275729761   T   T   T
  0.6960765817957955  0.2033794327066063  0.9080655246660948   T   T   T
  0.4875822213814712  0.0305410138548820  0.9680187861069800   T   T   T
  0.1070785265984636  0.0306222906807517  0.1734517476619051   T   T   T
  0.1070442645829360  0.0306161775858331  0.6633082469352337   T   T   T
  0.1070427650431672  0.0306271971357093  0.9081872737120127   T   T   T
  0.6065928155442115  0.0298666667861464  0.1683985342123318   T   T   T
  0.6070293917325674  0.0306563595261833  0.4081812851621089   T   T   T
  0.6069868934645157  0.0304875209804767  0.6734435983769340   T   T   T
  0.3565907623023425  0.0297703310998974  0.4133376115231783   T   T   T
  0.3571037194361330  0.0306015155670760  0.6632880141217039   T   T   T
  0.8570850785582705  0.0305963644793668  0.1632800557686375   T   T   T
  0.8570893452548964  0.0305822628050987  0.6632851543776273   T   T   T
  0.8569701307167166  0.0305966638291152  0.9183441572681604   T   T   T
  0.4404097704001650  0.2041679277137568  0.1632941891676013   T   T   T
  0.4403508641131385  0.2041423713849982  0.6632743329063812   T   T   T
  0.4402344482031537  0.2041547063742893  0.9082806320932620   T   T   T
  0.9403800199836252  0.2041792884617265  0.1632833959736644   T   T   T
  0.9403529347321647  0.2041340278024713  0.6632942240340350   T   T   T
  0.9385262959564926  0.2043165885549610  0.9082217865637298   T   T   T
 
  0.00000000E+00  0.00000000E+00  0.00000000E+00
  0.00000000E+00  0.00000000E+00  0.00000000E+00
  0.00000000E+00  0.00000000E+00  0.00000000E+00
  0.00000000E+00  0.00000000E+00  0.00000000E+00
  0.00000000E+00  0.00000000E+00  0.00000000E+00
  0.00000000E+00  0.00000000E+00  0.00000000E+00
  0.00000000E+00  0.00000000E+00  0.00000000E+00
  0.00000000E+00  0.00000000E+00  0.00000000E+00
  0.00000000E+00  0.00000000E+00  0.00000000E+00
  0.00000000E+00  0.00000000E+00  0.00000000E+00
  0.00000000E+00  0.00000000E+00  0.00000000E+00
  0.00000000E+00  0.00000000E+00  0.00000000E+00
  0.00000000E+00  0.00000000E+00  0.00000000E+00
  0.00000000E+00  0.00000000E+00  0.00000000E+00
  0.00000000E+00  0.00000000E+00  0.00000000E+00
  0.00000000E+00  0.00000000E+00  0.00000000E+00
  0.00000000E+00  0.00000000E+00  0.00000000E+00
  0.00000000E+00  0.00000000E+00  0.00000000E+00
  0.00000000E+00  0.00000000E+00  0.00000000E+00
  0.00000000E+00  0.00000000E+00  0.00000000E+00
  0.00000000E+00  0.00000000E+00  0.00000000E+00
  0.00000000E+00  0.00000000E+00  0.00000000E+00
  0.00000000E+00  0.00000000E+00  0.00000000E+00
  0.00000000E+00  0.00000000E+00  0.00000000E+00
  0.00000000E+00  0.00000000E+00  0.00000000E+00
  0.00000000E+00  0.00000000E+00  0.00000000E+00
  0.00000000E+00  0.00000000E+00  0.00000000E+00
  0.00000000E+00  0.00000000E+00  0.00000000E+00
  0.00000000E+00  0.00000000E+00  0.00000000E+00
  0.00000000E+00  0.00000000E+00  0.00000000E+00
  0.00000000E+00  0.00000000E+00  0.00000000E+00
  0.00000000E+00  0.00000000E+00  0.00000000E+00
  0.00000000E+00  0.00000000E+00  0.00000000E+00
  0.00000000E+00  0.00000000E+00  0.00000000E+00
  0.00000000E+00  0.00000000E+00  0.00000000E+00
  0.00000000E+00  0.00000000E+00  0.00000000E+00
  0.00000000E+00  0.00000000E+00  0.00000000E+00
  0.00000000E+00  0.00000000E+00  0.00000000E+00
  0.00000000E+00  0.00000000E+00  0.00000000E+00
  0.00000000E+00  0.00000000E+00  0.00000000E+00
  0.00000000E+00  0.00000000E+00  0.00000000E+00
  0.00000000E+00  0.00000000E+00  0.00000000E+00
  0.00000000E+00  0.00000000E+00  0.00000000E+00
  0.00000000E+00  0.00000000E+00  0.00000000E+00
  0.00000000E+00  0.00000000E+00  0.00000000E+00
  0.00000000E+00  0.00000000E+00  0.00000000E+00
  0.00000000E+00  0.00000000E+00  0.00000000E+00
  0.00000000E+00  0.00000000E+00  0.00000000E+00
  0.00000000E+00  0.00000000E+00  0.00000000E+00
  0.00000000E+00  0.00000000E+00  0.00000000E+00
  0.00000000E+00  0.00000000E+00  0.00000000E+00
  0.00000000E+00  0.00000000E+00  0.00000000E+00
  0.00000000E+00  0.00000000E+00  0.00000000E+00
  0.00000000E+00  0.00000000E+00  0.00000000E+00
  0.00000000E+00  0.00000000E+00  0.00000000E+00
  0.00000000E+00  0.00000000E+00  0.00000000E+00
  0.00000000E+00  0.00000000E+00  0.00000000E+00
  0.00000000E+00  0.00000000E+00  0.00000000E+00
  0.00000000E+00  0.00000000E+00  0.00000000E+00
  0.00000000E+00  0.00000000E+00  0.00000000E+00
  0.00000000E+00  0.00000000E+00  0.00000000E+00
  0.00000000E+00  0.00000000E+00  0.00000000E+00
  0.00000000E+00  0.00000000E+00  0.00000000E+00
  0.00000000E+00  0.00000000E+00  0.00000000E+00
  0.00000000E+00  0.00000000E+00  0.00000000E+00
  0.00000000E+00  0.00000000E+00  0.00000000E+00
  0.00000000E+00  0.00000000E+00  0.00000000E+00
  0.00000000E+00  0.00000000E+00  0.00000000E+00
  0.00000000E+00  0.00000000E+00  0.00000000E+00
  0.00000000E+00  0.00000000E+00  0.00000000E+00
  0.00000000E+00  0.00000000E+00  0.00000000E+00
  0.00000000E+00  0.00000000E+00  0.00000000E+00
  0.00000000E+00  0.00000000E+00  0.00000000E+00
  0.00000000E+00  0.00000000E+00  0.00000000E+00
  0.00000000E+00  0.00000000E+00  0.00000000E+00
  0.00000000E+00  0.00000000E+00  0.00000000E+00
  0.00000000E+00  0.00000000E+00  0.00000000E+00
  0.00000000E+00  0.00000000E+00  0.00000000E+00
  0.00000000E+00  0.00000000E+00  0.00000000E+00
  0.00000000E+00  0.00000000E+00  0.00000000E+00
  0.00000000E+00  0.00000000E+00  0.00000000E+00
  0.00000000E+00  0.00000000E+00  0.00000000E+00
  0.00000000E+00  0.00000000E+00  0.00000000E+00
  0.00000000E+00  0.00000000E+00  0.00000000E+00
  0.00000000E+00  0.00000000E+00  0.00000000E+00
  0.00000000E+00  0.00000000E+00  0.00000000E+00
  0.00000000E+00  0.00000000E+00  0.00000000E+00
  0.00000000E+00  0.00000000E+00  0.00000000E+00
  0.00000000E+00  0.00000000E+00  0.00000000E+00
  0.00000000E+00  0.00000000E+00  0.00000000E+00
  0.00000000E+00  0.00000000E+00  0.00000000E+00
  0.00000000E+00  0.00000000E+00  0.00000000E+00
  0.00000000E+00  0.00000000E+00  0.00000000E+00
  0.00000000E+00  0.00000000E+00  0.00000000E+00
  0.00000000E+00  0.00000000E+00  0.00000000E+00
  0.00000000E+00  0.00000000E+00  0.00000000E+00
  0.00000000E+00  0.00000000E+00  0.00000000E+00
  0.00000000E+00  0.00000000E+00  0.00000000E+00
  0.00000000E+00  0.00000000E+00  0.00000000E+00
  0.00000000E+00  0.00000000E+00  0.00000000E+00
  0.00000000E+00  0.00000000E+00  0.00000000E+00
  0.00000000E+00  0.00000000E+00  0.00000000E+00
  0.00000000E+00  0.00000000E+00  0.00000000E+00
  0.00000000E+00  0.00000000E+00  0.00000000E+00
  0.00000000E+00  0.00000000E+00  0.00000000E+00
  0.00000000E+00  0.00000000E+00  0.00000000E+00
  0.00000000E+00  0.00000000E+00  0.00000000E+00
  0.00000000E+00  0.00000000E+00  0.00000000E+00
  0.00000000E+00  0.00000000E+00  0.00000000E+00
  0.00000000E+00  0.00000000E+00  0.00000000E+00
  0.00000000E+00  0.00000000E+00  0.00000000E+00
  0.00000000E+00  0.00000000E+00  0.00000000E+00
  0.00000000E+00  0.00000000E+00  0.00000000E+00
  0.00000000E+00  0.00000000E+00  0.00000000E+00
  0.00000000E+00  0.00000000E+00  0.00000000E+00
  0.00000000E+00  0.00000000E+00  0.00000000E+00
  0.00000000E+00  0.00000000E+00  0.00000000E+00
  0.00000000E+00  0.00000000E+00  0.00000000E+00
  0.00000000E+00  0.00000000E+00  0.00000000E+00
  0.00000000E+00  0.00000000E+00  0.00000000E+00
  0.00000000E+00  0.00000000E+00  0.00000000E+00
  0.00000000E+00  0.00000000E+00  0.00000000E+00
  0.00000000E+00  0.00000000E+00  0.00000000E+00
  0.00000000E+00  0.00000000E+00  0.00000000E+00
  0.00000000E+00  0.00000000E+00  0.00000000E+00
  0.00000000E+00  0.00000000E+00  0.00000000E+00
  0.00000000E+00  0.00000000E+00  0.00000000E+00
  0.00000000E+00  0.00000000E+00  0.00000000E+00
  0.00000000E+00  0.00000000E+00  0.00000000E+00
  0.00000000E+00  0.00000000E+00  0.00000000E+00
  0.00000000E+00  0.00000000E+00  0.00000000E+00
  0.00000000E+00  0.00000000E+00  0.00000000E+00
  0.00000000E+00  0.00000000E+00  0.00000000E+00
  0.00000000E+00  0.00000000E+00  0.00000000E+00
  0.00000000E+00  0.00000000E+00  0.00000000E+00
  0.00000000E+00  0.00000000E+00  0.00000000E+00
  0.00000000E+00  0.00000000E+00  0.00000000E+00
  0.00000000E+00  0.00000000E+00  0.00000000E+00
  0.00000000E+00  0.00000000E+00  0.00000000E+00
  0.00000000E+00  0.00000000E+00  0.00000000E+00
  0.00000000E+00  0.00000000E+00  0.00000000E+00
  0.00000000E+00  0.00000000E+00  0.00000000E+00
  0.00000000E+00  0.00000000E+00  0.00000000E+00
  0.00000000E+00  0.00000000E+00  0.00000000E+00
  0.00000000E+00  0.00000000E+00  0.00000000E+00
  0.00000000E+00  0.00000000E+00  0.00000000E+00
  0.00000000E+00  0.00000000E+00  0.00000000E+00
  0.00000000E+00  0.00000000E+00  0.00000000E+00
  0.00000000E+00  0.00000000E+00  0.00000000E+00
  0.00000000E+00  0.00000000E+00  0.00000000E+00
  0.00000000E+00  0.00000000E+00  0.00000000E+00
  0.00000000E+00  0.00000000E+00  0.00000000E+00
  0.00000000E+00  0.00000000E+00  0.00000000E+00
  0.00000000E+00  0.00000000E+00  0.00000000E+00
  0.00000000E+00  0.00000000E+00  0.00000000E+00
  0.00000000E+00  0.00000000E+00  0.00000000E+00
  0.00000000E+00  0.00000000E+00  0.00000000E+00
  0.00000000E+00  0.00000000E+00  0.00000000E+00
  0.00000000E+00  0.00000000E+00  0.00000000E+00
  0.00000000E+00  0.00000000E+00  0.00000000E+00
  0.00000000E+00  0.00000000E+00  0.00000000E+00
  0.00000000E+00  0.00000000E+00  0.00000000E+00
  0.00000000E+00  0.00000000E+00  0.00000000E+00
  0.00000000E+00  0.00000000E+00  0.00000000E+00
  0.00000000E+00  0.00000000E+00  0.00000000E+00
  0.00000000E+00  0.00000000E+00  0.00000000E+00
  0.00000000E+00  0.00000000E+00  0.00000000E+00
  0.00000000E+00  0.00000000E+00  0.00000000E+00
  0.00000000E+00  0.00000000E+00  0.00000000E+00
  0.00000000E+00  0.00000000E+00  0.00000000E+00
  0.00000000E+00  0.00000000E+00  0.00000000E+00
  0.00000000E+00  0.00000000E+00  0.00000000E+00
  0.00000000E+00  0.00000000E+00  0.00000000E+00
  0.00000000E+00  0.00000000E+00  0.00000000E+00
  0.00000000E+00  0.00000000E+00  0.00000000E+00
  0.00000000E+00  0.00000000E+00  0.00000000E+00
  0.00000000E+00  0.00000000E+00  0.00000000E+00
  0.00000000E+00  0.00000000E+00  0.00000000E+00
  0.00000000E+00  0.00000000E+00  0.00000000E+00
  0.00000000E+00  0.00000000E+00  0.00000000E+00
  0.00000000E+00  0.00000000E+00  0.00000000E+00
  0.00000000E+00  0.00000000E+00  0.00000000E+00
  0.00000000E+00  0.00000000E+00  0.00000000E+00
  0.00000000E+00  0.00000000E+00  0.00000000E+00
  0.00000000E+00  0.00000000E+00  0.00000000E+00
  0.00000000E+00  0.00000000E+00  0.00000000E+00
  0.00000000E+00  0.00000000E+00  0.00000000E+00
  0.00000000E+00  0.00000000E+00  0.00000000E+00
  0.00000000E+00  0.00000000E+00  0.00000000E+00
  0.00000000E+00  0.00000000E+00  0.00000000E+00
