C H N O S                               
   1.00000000000000     
    17.0814999999999984    0.0000000000000000    0.0000000000000000
     0.0000000000000000   21.3509999999999991    0.0000000000000000
     0.0000000000000000    0.0000000000000000   19.7240000000000002
   C    H    N    O    S 
   131    39     1    66     1
Selective dynamics
Direct
  0.0366348950870545  0.1390100149114630  0.0627944589780540   T   T   T
  0.0366370385147547  0.1390096123659035  0.5627918765206559   T   T   T
  0.5366381730592025  0.1390119376206016  0.0627936761745360   T   T   T
  0.5365828290023558  0.1390076022310254  0.5627889276532869   T   T   T
  0.0468072809922475  0.1390930797701628  0.3121757847349258   T   T   T
  0.0468092482961850  0.1390942610822705  0.8121778551904129   T   T   T
  0.5467938334106037  0.1390953406680637  0.3122134682466040   T   T   T
  0.5468102619703004  0.1390955497929696  0.8121789897621596   T   T   T
  0.0359237764900229  0.1487950949232442  0.1881506943063300   T   T   T
  0.0359164490615314  0.1487982692805119  0.6881532151364738   T   T   T
  0.5359175599458368  0.1487940076622465  0.1881508286464282   T   T   T
  0.5359109810161726  0.1488113263978690  0.6881589924826201   T   T   T
  0.0372616473862024  0.1486915565913876  0.4381696803399038   T   T   T
  0.0372915117414649  0.1486767930219770  0.9381791405556825   T   T   T
  0.5373121387159543  0.1486288739754045  0.4381836348254708   T   T   T
  0.5372798950355673  0.1486847913457936  0.9381770762927459   T   T   T
  0.2862100911906325  0.1484055503125603  0.0631973618384691   T   T   T
  0.2862008036693098  0.1484026672668719  0.5632051772439937   T   T   T
  0.7862088824742131  0.1484105154921096  0.0631820231519526   T   T   T
  0.7862106773929654  0.1484071196814369  0.5631748449378975   T   T   T
  0.2861935570731262  0.1479126189757096  0.3131967269485187   T   T   T
  0.2861923164087230  0.1479188419053230  0.8132093730473571   T   T   T
  0.7862093232576086  0.1479082315894544  0.3131875673578151   T   T   T
  0.7862000533504059  0.1479161525796684  0.8131958635989207   T   T   T
  0.2862066688651126  0.1390665858127846  0.1881167214602826   T   T   T
  0.2862422798320097  0.1390522759611841  0.6880324226310535   T   T   T
  0.7861527664568797  0.1390754312961491  0.1881067290268490   T   T   T
  0.7861383970572788  0.1390724525845570  0.6880716936703024   T   T   T
  0.2968625395656943  0.1395842432855190  0.4374008066306772   T   T   T
  0.2957402821136270  0.1399118993355088  0.9374548416873836   T   T   T
  0.7953638585544880  0.1399982283826802  0.4374797725620283   T   T   T
  0.7958833312948457  0.1398697309464296  0.9374585637708677   T   T   T
  0.1231937192462240  0.1419596019778027  0.0626101702653088   T   T   T
  0.1231976918166282  0.1419604922408055  0.5626119725762280   T   T   T
  0.6231915936541128  0.1419612963159764  0.0626116408042350   T   T   T
  0.6231652127643059  0.1419823944709293  0.5626063635771459   T   T   T
  0.1303848478074983  0.1475141985247319  0.3129953665229905   T   T   T
  0.1303824335122030  0.1475137307496439  0.8129958344106640   T   T   T
  0.6303793728703724  0.1475073676103307  0.3129990862634102   T   T   T
  0.6303836103086056  0.1475117061701283  0.8129938573238533   T   T   T
  0.1198375883221345  0.1482842414679695  0.1868193331895327   T   T   T
  0.1198375279712067  0.1483035323271551  0.6868219196475209   T   T   T
  0.6198372606022247  0.1483040406048488  0.1868232730610089   T   T   T
  0.6198376370908960  0.1483007899429083  0.6868182985728950   T   T   T
  0.1291386685993388  0.1475775113856415  0.4373194505216702   T   T   T
  0.1291474011122560  0.1475753435958751  0.9373153790317446   T   T   T
  0.6291380345488733  0.1475842079496843  0.4373238426668706   T   T   T
  0.6291441601723093  0.1475772190648570  0.9373155153859614   T   T   T
  0.3704140517416832  0.1390537339586331  0.0619912410460302   T   T   T
  0.3703248357487041  0.1387871572064796  0.5619504816784797   T   T   T
  0.8704143742867245  0.1390556731873360  0.0619903505940940   T   T   T
  0.8703934623770238  0.1390584270085640  0.5619844534928475   T   T   T
  0.3707098932485309  0.1388691143872833  0.3122746532739242   T   T   T
  0.3706951750451992  0.1388837012413404  0.8122918022534691   T   T   T
  0.8707061401327820  0.1388788236423153  0.3122684710961465   T   T   T
  0.8707018107711448  0.1388748566968872  0.8122718992816260   T   T   T
  0.3709218445172411  0.1393752417613001  0.1875368072762527   T   T   T
  0.3709239359441341  0.1393913345660849  0.6875401663460607   T   T   T
  0.8709346449400286  0.1393656405607473  0.1875208002263733   T   T   T
  0.8709382921833821  0.1393647150432784  0.6875226897255970   T   T   T
  0.3804830624765074  0.1480142713166259  0.4378919309012801   T   T   T
  0.3803910570004092  0.1481087722443988  0.9379270131142405   T   T   T
  0.8803606146722487  0.1481036587516300  0.4379256468741488   T   T   T
  0.8803985092272200  0.1481094169593078  0.9379256627822130   T   T   T
  0.1662869046440960  0.1671188858546913  0.1245830459712067   T   T   T
  0.1662902388442333  0.1671299847985708  0.6245788404565431   T   T   T
  0.6662821993112047  0.1671228342394855  0.1245837709078899   T   T   T
  0.6662937503741162  0.1671464081901561  0.6245885756017486   T   T   T
  0.1676256296744256  0.1675004693260433  0.3750050741420452   T   T   T
  0.1676167903798600  0.1674917051742639  0.8749862538233302   T   T   T
  0.6676188441312831  0.1674354991156193  0.3750020050193328   T   T   T
  0.6676139726546992  0.1675026068031542  0.8749827045465466   T   T   T
  0.1668565902788117  0.1485877814284819  0.2491729652932619   T   T   T
  0.1668498532442086  0.1485844887950307  0.7491766301256106   T   T   T
  0.6668618495736354  0.1485860557046763  0.2491662814695417   T   T   T
  0.6668660875293639  0.1485988090424897  0.7491728145245418   T   T   T
  0.1673066797359581  0.1479575045849941  0.0004186000767774   T   T   T
  0.1673108552303333  0.1479563825595562  0.5004112192783694   T   T   T
  0.6673061773197730  0.1479576569993100  0.0004177988544356   T   T   T
  0.6673189763762224  0.1479709436549754  0.5004238911203913   T   T   T
  0.4162615805021943  0.1467137123169451  0.1247697645198684   T   T   T
  0.4162765030848163  0.1467322671686446  0.6247031098763358   T   T   T
  0.9162693852666024  0.1467162253067045  0.1247669845484651   T   T   T
  0.9162712729956155  0.1467134579224236  0.6247640620919981   T   T   T
  0.4172492201921543  0.1477465535295224  0.3740979204922894   T   T   T
  0.4172455365093839  0.1477563479174719  0.8741100933335630   T   T   T
  0.9172417622859115  0.1477562890202151  0.3741111326337503   T   T   T
  0.9172444266184101  0.1477539954610947  0.8741086678641494   T   T   T
  0.4159668426277463  0.1588414347906806  0.2500834420027189   T   T   T
  0.4159541226973573  0.1588393396450769  0.7500640646076846   T   T   T
  0.9159381192827212  0.1588579224515030  0.2500862156877872   T   T   T
  0.9159680486706634  0.1588423705576432  0.7500818920369241   T   T   T
  0.4165929134699837  0.1671273704394096  0.0008497838837584   T   T   T
  0.4165413522043551  0.1665906796729928  0.5007933719289994   T   T   T
  0.9165923171521015  0.1671295737376255  0.0008479728708011   T   T   T
  0.9165877376587233  0.1671265870391352  0.5008483396224932   T   T   T
  0.9994403896221939  0.1664794761858843  0.1243559871429625   T   T   T
  0.9994377019858405  0.1664836705328838  0.6243553199734322   T   T   T
  0.4994426123256446  0.1664835430331735  0.1243587335228042   T   T   T
  0.4994904621711100  0.1665097957985537  0.6243753353485388   T   T   T
  0.0004703570678686  0.1668648580882959  0.3741479776414209   T   T   T
  0.0004672002334232  0.1668637033585583  0.8741543875658024   T   T   T
  0.5004720305098971  0.1668651708847833  0.3741644009133012   T   T   T
  0.5004851672414503  0.1668690721684953  0.8741503229872478   T   T   T
  0.0003839154476069  0.1479483014022520  0.2493057164002863   T   T   T
  0.0003724168861794  0.1479481144544792  0.7493032115653975   T   T   T
  0.5003773308768800  0.1479491993948301  0.2493059293537598   T   T   T
  0.5003551638949943  0.1479462083185865  0.7492978464556614   T   T   T
  0.9999254796399057  0.1486207939757236  0.9991358287366907   T   T   T
  0.9999262794311434  0.1486215003863620  0.4991389848788046   T   T   T
  0.4999286499810509  0.1486182765336537  0.9991378462823448   T   T   T
  0.4999582950493604  0.1485672591280718  0.4991033646218241   T   T   T
  0.2496072256384281  0.1484899188477087  0.1241863337899787   T   T   T
  0.2496089456262922  0.1484805364730519  0.6241851252300634   T   T   T
  0.7496085921245594  0.1484973517266894  0.1241673312677989   T   T   T
  0.7495993220821191  0.1484931229898336  0.6241533199185412   T   T   T
  0.2505095297085305  0.1483140725806109  0.3743082962474489   T   T   T
  0.2504751023562548  0.1483292691151803  0.8743027561474008   T   T   T
  0.7504743163429737  0.1483303097578457  0.3742871314304068   T   T   T
  0.7504740190567105  0.1483281200093671  0.8742970032349504   T   T   T
  0.2502126770083066  0.1669834232088121  0.2494202671476629   T   T   T
  0.2501916336131131  0.1670075414692818  0.7495100512534663   T   T   T
  0.7502328838185122  0.1669501268284677  0.2493544681560991   T   T   T
  0.7502307639893075  0.1669651853901044  0.7493922148774317   T   T   T
  0.2503517823747075  0.1678537851252884  0.9994935333404840   T   T   T
  0.2503708745055420  0.1677148658104386  0.4994419822235230   T   T   T
  0.7503526629384183  0.1678403934925115  0.9994826527118761   T   T   T
  0.7503466923786846  0.1679744091665611  0.4995617268387988   T   T   T
  0.5004580861757901  0.3904656669608855  0.4889830600172189   T   T   T
  0.4229147993974181  0.3596559789237475  0.4947005710724994   T   T   T
  0.5590783709140865  0.3705574708209198  0.5410174641959742   T   T   T
  0.3067019239654343  0.2484609918113918  0.4920583837520383   T   T   T
  0.3067351845031112  0.2485308064696383  0.9919651986508171   T   T   T
  0.8067149571373662  0.2484997539184093  0.4919989503333753   T   T   T
  0.8067258697161961  0.2485285408651094  0.9919631490953478   T   T   T
  0.1995901919239529  0.2519723068242570  0.4034394033296422   T   T   T
  0.1995843803326665  0.2519894789717583  0.9034385031168455   T   T   T
  0.6995323868631687  0.2520291535385226  0.4034331334352004   T   T   T
  0.6995883770395253  0.2519843569927716  0.9034389552777213   T   T   T
  0.2115746519023034  0.2484888997743866  0.1536874430151514   T   T   T
  0.2114874057806304  0.2484329648504229  0.6536253773101137   T   T   T
  0.7115485633734266  0.2484628747319420  0.1536406578633205   T   T   T
  0.7115431043677276  0.2484828340827363  0.6537996344069086   T   T   T
  0.4376925772329443  0.2436126359506545  0.2889310363168676   T   T   T
  0.4376969276748071  0.2436334027717564  0.7889448782952897   T   T   T
  0.9376947040193215  0.2436269519139955  0.2889362899230576   T   T   T
  0.9376977779711453  0.2436312854745921  0.7889396070010903   T   T   T
  0.4379252413201016  0.2489456912504195  0.0494163176466387   T   T   T
  0.4432626703300144  0.2434631307039012  0.5493852419142513   T   T   T
  0.9377789171924817  0.2488905138578730  0.0493346501210183   T   T   T
  0.9379427574381367  0.2489441313595009  0.5494242400261840   T   T   T
  0.3196898388562985  0.2407515808363740  0.2497791107018585   T   T   T
  0.3196486270773562  0.2407612539164177  0.7497869671893014   T   T   T
  0.8196745385987683  0.2407888994239542  0.2498073984639220   T   T   T
  0.8196873645486420  0.2407629298590876  0.7498153525236546   T   T   T
  0.0568787136936422  0.2480071643109696  0.3582971419243179   T   T   T
  0.0569269550979783  0.2479831669315686  0.8583435390350118   T   T   T
  0.5566852267795781  0.2475460543019210  0.3567375973656794   T   T   T
  0.5568508013424420  0.2481698053612078  0.8578758969587454   T   T   T
  0.0567925465350925  0.2435137428028824  0.1078478099086979   T   T   T
  0.0567961308149165  0.2435168000551187  0.6078624724917105   T   T   T
  0.5567949688785490  0.2435184824123269  0.1078576511102511   T   T   T
  0.5564457592690104  0.2467692597053528  0.6071070223471793   T   T   T
  0.4928821078502352  0.4430567851031952  0.4932062361670191   T   T   T
  0.3827408729644262  0.3796440111135411  0.4586454164640159   T   T   T
  0.4280212202013729  0.3083286730754580  0.4859404872568405   T   T   T
  0.5820769086498174  0.4074037609440424  0.4157092988935247   T   T   T
  0.4924830113950449  0.4005269299241405  0.3876415973208083   T   T   T
  0.4285712430919517  0.3431521685474621  0.6126693968784664   T   T   T
  0.6280034335685798  0.4003588699270395  0.6117350431805733   T   T   T
  0.5353867270684702  0.3791665874802490  0.4172975653327740   T   T   T
  0.2500439725152290  0.2402230663069389  0.4894051203854204   T   T   T
  0.2500481176128844  0.2402230672718559  0.9893512123124992   T   T   T
  0.7500353815064358  0.2402224738707233  0.4896933789936213   T   T   T
  0.7500610125384313  0.2402216167902935  0.9893813938403966   T   T   T
  0.1666734826368526  0.2361475910546318  0.3654304672413105   T   T   T
  0.1666400514273505  0.2361516497643166  0.8653516030869639   T   T   T
  0.6666396214058494  0.2361432938394117  0.3654019328046942   T   T   T
  0.6666705610583534  0.2361704907908830  0.8654247733406990   T   T   T
  0.1666877306858652  0.2402342044923600  0.1247228903914319   T   T   T
  0.1666827798173500  0.2402295866787370  0.6247158983156638   T   T   T
  0.6666849731733393  0.2402345129644630  0.1247149020980842   T   T   T
  0.6667059993561608  0.2402213902759343  0.6247666762727135   T   T   T
  0.4049148460949183  0.2310245140323914  0.2502639388126653   T   T   T
  0.4049229119045066  0.2310138161882449  0.7502627017610379   T   T   T
  0.9049189583874622  0.2310216816725656  0.2502611470958911   T   T   T
  0.9049204081127300  0.2310177126347313  0.7502578289581407   T   T   T
  0.4047911937406070  0.2360842428518950  0.0095890552027669   T   T   T
  0.4049050503121450  0.2320606288006246  0.5105826746728539   T   T   T
  0.9047923291857387  0.2360511164454877  0.0096169631956329   T   T   T
  0.9047898269453256  0.2360786273117483  0.5095874805756537   T   T   T
  0.2617732828662369  0.2360183583605036  0.2491382025077442   T   T   T
  0.2618287420649281  0.2360720129379601  0.7491347267631596   T   T   T
  0.7618369252201020  0.2360744330278024  0.2491396058987405   T   T   T
  0.7618248004646730  0.2360594577996196  0.7491341539050040   T   T   T
  0.0001155284165861  0.2360397823434042  0.3637635051259167   T   T   T
  0.0001001389803932  0.2360511668128424  0.8637618557732907   T   T   T
  0.5000950908536979  0.2360413030032547  0.3637563668426864   T   T   T
  0.5001027844849304  0.2360627909960940  0.8637670908552124   T   T   T
  0.0001611201911160  0.2321162848168612  0.1143513654751018   T   T   T
  0.0001618490963864  0.2321168149714126  0.6143585439278354   T   T   T
  0.5001592860192119  0.2321167721343613  0.1143393663918602   T   T   T
  0.5001686164403978  0.2321124622919655  0.6144355445911387   T   T   T
  0.3451771173042459  0.0877996968353401  0.4384287966865088   T   T   T
  0.3451721878473109  0.0878175029516086  0.9384316904725125   T   T   T
  0.8451672747016801  0.0878221993378219  0.4384315020747422   T   T   T
  0.8451732580959401  0.0878156106479864  0.9384320248288063   T   T   T
  0.3332571194504013  0.0828013336758957  0.1879903759300774   T   T   T
  0.3332580074127947  0.0828012175096760  0.6879910955653656   T   T   T
  0.8332566647511968  0.0828029319367687  0.1879935083519442   T   T   T
  0.8332571603434999  0.0828029035938087  0.6879937151777966   T   T   T
  0.1666626518803582  0.0880141786768576  0.4678786122755696   T   T   T
  0.1666626069623689  0.0880157222123543  0.9678770813531727   T   T   T
  0.6666646795042652  0.0879486906299363  0.4678688861072402   T   T   T
  0.6666632048246228  0.0880141825214693  0.9678789048433742   T   T   T
  0.0951475801608126  0.0834705824182862  0.3145983828744576   T   T   T
  0.0951477669644376  0.0834705879917692  0.8145982304334325   T   T   T
  0.5951485389098039  0.0834574117894959  0.3146023650272269   T   T   T
  0.5951492567059518  0.0834667064264281  0.8145984920303775   T   T   T
  0.0833722084799646  0.0837844497110254  0.0630125925288709   T   T   T
  0.0833720264932509  0.0837832051268848  0.5630120706686910   T   T   T
  0.5833760176851541  0.0838055624047769  0.0630120636402367   T   T   T
  0.5833651380291940  0.0837293258362450  0.5629668973994910   T   T   T
  0.4048680725520057  0.0838483178409675  0.0932958146971714   T   T   T
  0.4048701113272202  0.0838377536160877  0.5932723858804749   T   T   T
  0.9048680032450989  0.0838483232410212  0.0932955249276546   T   T   T
  0.9048686787593780  0.0838482108380205  0.5932959033803868   T   T   T
  0.4048913751556640  0.0838541950933092  0.3433314028829031   T   T   T
  0.4048932316812284  0.0838556631670357  0.8433327075277504   T   T   T
  0.9048942605931956  0.0838549025604252  0.3433318451719671   T   T   T
  0.9048932042951918  0.0838554998753409  0.8433331916812108   T   T   T
  0.1445359291667430  0.0924216933139235  0.2179709922257445   T   T   T
  0.1444982611924885  0.0923768545425858  0.7179834084582666   T   T   T
  0.6445005285760530  0.0923777355666147  0.2179817712263841   T   T   T
  0.6445099296670378  0.0923937492376510  0.7179861343841694   T   T   T
  0.5835067021771607  0.4161671937502831  0.5835285750286587   T   T   T
  0.5715637043451949  0.3142860503727789  0.5419243566897975   T   T   T
  0.3780769577434242  0.3767783556329292  0.5762835564890239   T   T   T
 
  0.00000000E+00  0.00000000E+00  0.00000000E+00
  0.00000000E+00  0.00000000E+00  0.00000000E+00
  0.00000000E+00  0.00000000E+00  0.00000000E+00
  0.00000000E+00  0.00000000E+00  0.00000000E+00
  0.00000000E+00  0.00000000E+00  0.00000000E+00
  0.00000000E+00  0.00000000E+00  0.00000000E+00
  0.00000000E+00  0.00000000E+00  0.00000000E+00
  0.00000000E+00  0.00000000E+00  0.00000000E+00
  0.00000000E+00  0.00000000E+00  0.00000000E+00
  0.00000000E+00  0.00000000E+00  0.00000000E+00
  0.00000000E+00  0.00000000E+00  0.00000000E+00
  0.00000000E+00  0.00000000E+00  0.00000000E+00
  0.00000000E+00  0.00000000E+00  0.00000000E+00
  0.00000000E+00  0.00000000E+00  0.00000000E+00
  0.00000000E+00  0.00000000E+00  0.00000000E+00
  0.00000000E+00  0.00000000E+00  0.00000000E+00
  0.00000000E+00  0.00000000E+00  0.00000000E+00
  0.00000000E+00  0.00000000E+00  0.00000000E+00
  0.00000000E+00  0.00000000E+00  0.00000000E+00
  0.00000000E+00  0.00000000E+00  0.00000000E+00
  0.00000000E+00  0.00000000E+00  0.00000000E+00
  0.00000000E+00  0.00000000E+00  0.00000000E+00
  0.00000000E+00  0.00000000E+00  0.00000000E+00
  0.00000000E+00  0.00000000E+00  0.00000000E+00
  0.00000000E+00  0.00000000E+00  0.00000000E+00
  0.00000000E+00  0.00000000E+00  0.00000000E+00
  0.00000000E+00  0.00000000E+00  0.00000000E+00
  0.00000000E+00  0.00000000E+00  0.00000000E+00
  0.00000000E+00  0.00000000E+00  0.00000000E+00
  0.00000000E+00  0.00000000E+00  0.00000000E+00
  0.00000000E+00  0.00000000E+00  0.00000000E+00
  0.00000000E+00  0.00000000E+00  0.00000000E+00
  0.00000000E+00  0.00000000E+00  0.00000000E+00
  0.00000000E+00  0.00000000E+00  0.00000000E+00
  0.00000000E+00  0.00000000E+00  0.00000000E+00
  0.00000000E+00  0.00000000E+00  0.00000000E+00
  0.00000000E+00  0.00000000E+00  0.00000000E+00
  0.00000000E+00  0.00000000E+00  0.00000000E+00
  0.00000000E+00  0.00000000E+00  0.00000000E+00
  0.00000000E+00  0.00000000E+00  0.00000000E+00
  0.00000000E+00  0.00000000E+00  0.00000000E+00
  0.00000000E+00  0.00000000E+00  0.00000000E+00
  0.00000000E+00  0.00000000E+00  0.00000000E+00
  0.00000000E+00  0.00000000E+00  0.00000000E+00
  0.00000000E+00  0.00000000E+00  0.00000000E+00
  0.00000000E+00  0.00000000E+00  0.00000000E+00
  0.00000000E+00  0.00000000E+00  0.00000000E+00
  0.00000000E+00  0.00000000E+00  0.00000000E+00
  0.00000000E+00  0.00000000E+00  0.00000000E+00
  0.00000000E+00  0.00000000E+00  0.00000000E+00
  0.00000000E+00  0.00000000E+00  0.00000000E+00
  0.00000000E+00  0.00000000E+00  0.00000000E+00
  0.00000000E+00  0.00000000E+00  0.00000000E+00
  0.00000000E+00  0.00000000E+00  0.00000000E+00
  0.00000000E+00  0.00000000E+00  0.00000000E+00
  0.00000000E+00  0.00000000E+00  0.00000000E+00
  0.00000000E+00  0.00000000E+00  0.00000000E+00
  0.00000000E+00  0.00000000E+00  0.00000000E+00
  0.00000000E+00  0.00000000E+00  0.00000000E+00
  0.00000000E+00  0.00000000E+00  0.00000000E+00
  0.00000000E+00  0.00000000E+00  0.00000000E+00
  0.00000000E+00  0.00000000E+00  0.00000000E+00
  0.00000000E+00  0.00000000E+00  0.00000000E+00
  0.00000000E+00  0.00000000E+00  0.00000000E+00
  0.00000000E+00  0.00000000E+00  0.00000000E+00
  0.00000000E+00  0.00000000E+00  0.00000000E+00
  0.00000000E+00  0.00000000E+00  0.00000000E+00
  0.00000000E+00  0.00000000E+00  0.00000000E+00
  0.00000000E+00  0.00000000E+00  0.00000000E+00
  0.00000000E+00  0.00000000E+00  0.00000000E+00
  0.00000000E+00  0.00000000E+00  0.00000000E+00
  0.00000000E+00  0.00000000E+00  0.00000000E+00
  0.00000000E+00  0.00000000E+00  0.00000000E+00
  0.00000000E+00  0.00000000E+00  0.00000000E+00
  0.00000000E+00  0.00000000E+00  0.00000000E+00
  0.00000000E+00  0.00000000E+00  0.00000000E+00
  0.00000000E+00  0.00000000E+00  0.00000000E+00
  0.00000000E+00  0.00000000E+00  0.00000000E+00
  0.00000000E+00  0.00000000E+00  0.00000000E+00
  0.00000000E+00  0.00000000E+00  0.00000000E+00
  0.00000000E+00  0.00000000E+00  0.00000000E+00
  0.00000000E+00  0.00000000E+00  0.00000000E+00
  0.00000000E+00  0.00000000E+00  0.00000000E+00
  0.00000000E+00  0.00000000E+00  0.00000000E+00
  0.00000000E+00  0.00000000E+00  0.00000000E+00
  0.00000000E+00  0.00000000E+00  0.00000000E+00
  0.00000000E+00  0.00000000E+00  0.00000000E+00
  0.00000000E+00  0.00000000E+00  0.00000000E+00
  0.00000000E+00  0.00000000E+00  0.00000000E+00
  0.00000000E+00  0.00000000E+00  0.00000000E+00
  0.00000000E+00  0.00000000E+00  0.00000000E+00
  0.00000000E+00  0.00000000E+00  0.00000000E+00
  0.00000000E+00  0.00000000E+00  0.00000000E+00
  0.00000000E+00  0.00000000E+00  0.00000000E+00
  0.00000000E+00  0.00000000E+00  0.00000000E+00
  0.00000000E+00  0.00000000E+00  0.00000000E+00
  0.00000000E+00  0.00000000E+00  0.00000000E+00
  0.00000000E+00  0.00000000E+00  0.00000000E+00
  0.00000000E+00  0.00000000E+00  0.00000000E+00
  0.00000000E+00  0.00000000E+00  0.00000000E+00
  0.00000000E+00  0.00000000E+00  0.00000000E+00
  0.00000000E+00  0.00000000E+00  0.00000000E+00
  0.00000000E+00  0.00000000E+00  0.00000000E+00
  0.00000000E+00  0.00000000E+00  0.00000000E+00
  0.00000000E+00  0.00000000E+00  0.00000000E+00
  0.00000000E+00  0.00000000E+00  0.00000000E+00
  0.00000000E+00  0.00000000E+00  0.00000000E+00
  0.00000000E+00  0.00000000E+00  0.00000000E+00
  0.00000000E+00  0.00000000E+00  0.00000000E+00
  0.00000000E+00  0.00000000E+00  0.00000000E+00
  0.00000000E+00  0.00000000E+00  0.00000000E+00
  0.00000000E+00  0.00000000E+00  0.00000000E+00
  0.00000000E+00  0.00000000E+00  0.00000000E+00
  0.00000000E+00  0.00000000E+00  0.00000000E+00
  0.00000000E+00  0.00000000E+00  0.00000000E+00
  0.00000000E+00  0.00000000E+00  0.00000000E+00
  0.00000000E+00  0.00000000E+00  0.00000000E+00
  0.00000000E+00  0.00000000E+00  0.00000000E+00
  0.00000000E+00  0.00000000E+00  0.00000000E+00
  0.00000000E+00  0.00000000E+00  0.00000000E+00
  0.00000000E+00  0.00000000E+00  0.00000000E+00
  0.00000000E+00  0.00000000E+00  0.00000000E+00
  0.00000000E+00  0.00000000E+00  0.00000000E+00
  0.00000000E+00  0.00000000E+00  0.00000000E+00
  0.00000000E+00  0.00000000E+00  0.00000000E+00
  0.00000000E+00  0.00000000E+00  0.00000000E+00
  0.00000000E+00  0.00000000E+00  0.00000000E+00
  0.00000000E+00  0.00000000E+00  0.00000000E+00
  0.00000000E+00  0.00000000E+00  0.00000000E+00
  0.00000000E+00  0.00000000E+00  0.00000000E+00
  0.00000000E+00  0.00000000E+00  0.00000000E+00
  0.00000000E+00  0.00000000E+00  0.00000000E+00
  0.00000000E+00  0.00000000E+00  0.00000000E+00
  0.00000000E+00  0.00000000E+00  0.00000000E+00
  0.00000000E+00  0.00000000E+00  0.00000000E+00
  0.00000000E+00  0.00000000E+00  0.00000000E+00
  0.00000000E+00  0.00000000E+00  0.00000000E+00
  0.00000000E+00  0.00000000E+00  0.00000000E+00
  0.00000000E+00  0.00000000E+00  0.00000000E+00
  0.00000000E+00  0.00000000E+00  0.00000000E+00
  0.00000000E+00  0.00000000E+00  0.00000000E+00
  0.00000000E+00  0.00000000E+00  0.00000000E+00
  0.00000000E+00  0.00000000E+00  0.00000000E+00
  0.00000000E+00  0.00000000E+00  0.00000000E+00
  0.00000000E+00  0.00000000E+00  0.00000000E+00
  0.00000000E+00  0.00000000E+00  0.00000000E+00
  0.00000000E+00  0.00000000E+00  0.00000000E+00
  0.00000000E+00  0.00000000E+00  0.00000000E+00
  0.00000000E+00  0.00000000E+00  0.00000000E+00
  0.00000000E+00  0.00000000E+00  0.00000000E+00
  0.00000000E+00  0.00000000E+00  0.00000000E+00
  0.00000000E+00  0.00000000E+00  0.00000000E+00
  0.00000000E+00  0.00000000E+00  0.00000000E+00
  0.00000000E+00  0.00000000E+00  0.00000000E+00
  0.00000000E+00  0.00000000E+00  0.00000000E+00
  0.00000000E+00  0.00000000E+00  0.00000000E+00
  0.00000000E+00  0.00000000E+00  0.00000000E+00
  0.00000000E+00  0.00000000E+00  0.00000000E+00
  0.00000000E+00  0.00000000E+00  0.00000000E+00
  0.00000000E+00  0.00000000E+00  0.00000000E+00
  0.00000000E+00  0.00000000E+00  0.00000000E+00
  0.00000000E+00  0.00000000E+00  0.00000000E+00
  0.00000000E+00  0.00000000E+00  0.00000000E+00
  0.00000000E+00  0.00000000E+00  0.00000000E+00
  0.00000000E+00  0.00000000E+00  0.00000000E+00
  0.00000000E+00  0.00000000E+00  0.00000000E+00
  0.00000000E+00  0.00000000E+00  0.00000000E+00
  0.00000000E+00  0.00000000E+00  0.00000000E+00
  0.00000000E+00  0.00000000E+00  0.00000000E+00
  0.00000000E+00  0.00000000E+00  0.00000000E+00
  0.00000000E+00  0.00000000E+00  0.00000000E+00
  0.00000000E+00  0.00000000E+00  0.00000000E+00
  0.00000000E+00  0.00000000E+00  0.00000000E+00
  0.00000000E+00  0.00000000E+00  0.00000000E+00
  0.00000000E+00  0.00000000E+00  0.00000000E+00
  0.00000000E+00  0.00000000E+00  0.00000000E+00
  0.00000000E+00  0.00000000E+00  0.00000000E+00
  0.00000000E+00  0.00000000E+00  0.00000000E+00
  0.00000000E+00  0.00000000E+00  0.00000000E+00
  0.00000000E+00  0.00000000E+00  0.00000000E+00
  0.00000000E+00  0.00000000E+00  0.00000000E+00
  0.00000000E+00  0.00000000E+00  0.00000000E+00
  0.00000000E+00  0.00000000E+00  0.00000000E+00
  0.00000000E+00  0.00000000E+00  0.00000000E+00
  0.00000000E+00  0.00000000E+00  0.00000000E+00
  0.00000000E+00  0.00000000E+00  0.00000000E+00
  0.00000000E+00  0.00000000E+00  0.00000000E+00
  0.00000000E+00  0.00000000E+00  0.00000000E+00
  0.00000000E+00  0.00000000E+00  0.00000000E+00
  0.00000000E+00  0.00000000E+00  0.00000000E+00
  0.00000000E+00  0.00000000E+00  0.00000000E+00
  0.00000000E+00  0.00000000E+00  0.00000000E+00
  0.00000000E+00  0.00000000E+00  0.00000000E+00
  0.00000000E+00  0.00000000E+00  0.00000000E+00
  0.00000000E+00  0.00000000E+00  0.00000000E+00
  0.00000000E+00  0.00000000E+00  0.00000000E+00
  0.00000000E+00  0.00000000E+00  0.00000000E+00
  0.00000000E+00  0.00000000E+00  0.00000000E+00
  0.00000000E+00  0.00000000E+00  0.00000000E+00
  0.00000000E+00  0.00000000E+00  0.00000000E+00
  0.00000000E+00  0.00000000E+00  0.00000000E+00
  0.00000000E+00  0.00000000E+00  0.00000000E+00
  0.00000000E+00  0.00000000E+00  0.00000000E+00
  0.00000000E+00  0.00000000E+00  0.00000000E+00
  0.00000000E+00  0.00000000E+00  0.00000000E+00
  0.00000000E+00  0.00000000E+00  0.00000000E+00
  0.00000000E+00  0.00000000E+00  0.00000000E+00
  0.00000000E+00  0.00000000E+00  0.00000000E+00
  0.00000000E+00  0.00000000E+00  0.00000000E+00
  0.00000000E+00  0.00000000E+00  0.00000000E+00
  0.00000000E+00  0.00000000E+00  0.00000000E+00
  0.00000000E+00  0.00000000E+00  0.00000000E+00
  0.00000000E+00  0.00000000E+00  0.00000000E+00
  0.00000000E+00  0.00000000E+00  0.00000000E+00
  0.00000000E+00  0.00000000E+00  0.00000000E+00
  0.00000000E+00  0.00000000E+00  0.00000000E+00
  0.00000000E+00  0.00000000E+00  0.00000000E+00
  0.00000000E+00  0.00000000E+00  0.00000000E+00
  0.00000000E+00  0.00000000E+00  0.00000000E+00
  0.00000000E+00  0.00000000E+00  0.00000000E+00
  0.00000000E+00  0.00000000E+00  0.00000000E+00
  0.00000000E+00  0.00000000E+00  0.00000000E+00
  0.00000000E+00  0.00000000E+00  0.00000000E+00
  0.00000000E+00  0.00000000E+00  0.00000000E+00
  0.00000000E+00  0.00000000E+00  0.00000000E+00
  0.00000000E+00  0.00000000E+00  0.00000000E+00
  0.00000000E+00  0.00000000E+00  0.00000000E+00
  0.00000000E+00  0.00000000E+00  0.00000000E+00
  0.00000000E+00  0.00000000E+00  0.00000000E+00
  0.00000000E+00  0.00000000E+00  0.00000000E+00
  0.00000000E+00  0.00000000E+00  0.00000000E+00
  0.00000000E+00  0.00000000E+00  0.00000000E+00
  0.00000000E+00  0.00000000E+00  0.00000000E+00
  0.00000000E+00  0.00000000E+00  0.00000000E+00
  0.00000000E+00  0.00000000E+00  0.00000000E+00
  0.00000000E+00  0.00000000E+00  0.00000000E+00
  0.00000000E+00  0.00000000E+00  0.00000000E+00
  0.00000000E+00  0.00000000E+00  0.00000000E+00
