C H N O S                               
   1.00000000000000     
    17.0814999999999984    0.0000000000000000    0.0000000000000000
     0.0000000000000000   21.3509999999999991    0.0000000000000000
     0.0000000000000000    0.0000000000000000   19.7240000000000002
   C    H    N    O    S 
   129    36     2    64     1
Selective dynamics
Direct
  0.8946710276293004  0.1941034836513822  0.0622751742920471   T   T   T
  0.8946642184684208  0.1941134745866222  0.5622699878332824   T   T   T
  0.3946673049691469  0.1940972436825419  0.0622749241674256   T   T   T
  0.3946382781618496  0.1941027444237164  0.5622914043384029   T   T   T
  0.8936507141368608  0.1944504154911826  0.3120463838445175   T   T   T
  0.8936541043358659  0.1944441340691725  0.8120453938118359   T   T   T
  0.3936649250361697  0.1945439453985500  0.3120469649601887   T   T   T
  0.3936606956917359  0.1945529274645068  0.8120466890375724   T   T   T
  0.9044818979051286  0.1846842894108036  0.1881696782633568   T   T   T
  0.9044812389916714  0.1846829028336998  0.6881714644261621   T   T   T
  0.4044472737725044  0.1847060696571106  0.1881745638984356   T   T   T
  0.4044411356894884  0.1847126178839034  0.6881739031010312   T   T   T
  0.8944385044528360  0.1852024570132613  0.4382828772308471   T   T   T
  0.8944384751820849  0.1851961674935367  0.9382814405438964   T   T   T
  0.3944251670837460  0.1853186193800056  0.4383244187673938   T   T   T
  0.3943982150633332  0.1853316355546468  0.9383085942119820   T   T   T
  0.6541324281648144  0.1852759871764889  0.0632077699012896   T   T   T
  0.6541315426223377  0.1852806052219833  0.5632085940207574   T   T   T
  0.1541309549744057  0.1852750615950285  0.0632073616368274   T   T   T
  0.1541236241238764  0.1852773973121131  0.5632092289079509   T   T   T
  0.6541641382877827  0.1855750781152921  0.3132057539577815   T   T   T
  0.6541625847037622  0.1855685756152496  0.8132093140259400   T   T   T
  0.1541549754857598  0.1855720899093996  0.3132080787753466   T   T   T
  0.1541583213539255  0.1855713144601481  0.8132091075926553   T   T   T
  0.6541152327254665  0.1944585278979929  0.1878430404153093   T   T   T
  0.6541135638282185  0.1944647623248770  0.6878304742332091   T   T   T
  0.1541106892155284  0.1944608810825414  0.1878356048100542   T   T   T
  0.1541107355200495  0.1944594632612322  0.6878383052647834   T   T   T
  0.6437728816797019  0.1940273202419931  0.4369610019979575   T   T   T
  0.6437828666383822  0.1940189239022629  0.9369645951509256   T   T   T
  0.1437835692055458  0.1940161556504165  0.4369631496370019   T   T   T
  0.1437807585716016  0.1940121046125114  0.9369644869426850   T   T   T
  0.8098114149709303  0.1939909109475124  0.0630739574387320   T   T   T
  0.8098108983004053  0.1939965961158308  0.5630750115750089   T   T   T
  0.3098114463191877  0.1939891020440285  0.0630757198964105   T   T   T
  0.3098241276112859  0.1939734566501983  0.5631048691152856   T   T   T
  0.8097027539438955  0.1899518033378840  0.3134592662821234   T   T   T
  0.8097032225901160  0.1899484699705951  0.8134599197821117   T   T   T
  0.3097231290163549  0.1899703923427367  0.3134614629082293   T   T   T
  0.3097185847158670  0.1899714025487285  0.8134588732309069   T   T   T
  0.8206648926441460  0.1852402428206901  0.1868462357600578   T   T   T
  0.8206628111943886  0.1852415191338324  0.6868420488308473   T   T   T
  0.3205755748676964  0.1854308896913679  0.1869008754900960   T   T   T
  0.3205618373725869  0.1854545582263754  0.6869140229724238   T   T   T
  0.8100101959341686  0.1939378962890288  0.4367381547138223   T   T   T
  0.8100114924478419  0.1939394027151238  0.9367773746840413   T   T   T
  0.3098632877028464  0.1939771959401853  0.4366902329089513   T   T   T
  0.3100109769616566  0.1939424598999864  0.9367798814630817   T   T   T
  0.5702173382545297  0.1946944178118244  0.0618438971550788   T   T   T
  0.5702178646527614  0.1947139101947570  0.5618459006513632   T   T   T
  0.0702176507680718  0.1946952563414897  0.0618439029097715   T   T   T
  0.0702176581579010  0.1946942256530662  0.5618441094367554   T   T   T
  0.5696436419435287  0.1947876425252844  0.3123271857256071   T   T   T
  0.5696333484995861  0.1947852155863572  0.8123284089070566   T   T   T
  0.0696355589645208  0.1947888672460252  0.3123271300315125   T   T   T
  0.0696378271112437  0.1947885109195013  0.8123269063936789   T   T   T
  0.5693346626340627  0.1944224444544247  0.1874912463487348   T   T   T
  0.5693344408757284  0.1944186971791595  0.6874877462870330   T   T   T
  0.0693326225428521  0.1944228626041635  0.1874935681646335   T   T   T
  0.0693321404162646  0.1944229035599889  0.6874922300125732   T   T   T
  0.5595781712933032  0.1854534687392047  0.4371269553892674   T   T   T
  0.5595822159157322  0.1854737688154771  0.9371398308518408   T   T   T
  0.0595782184796292  0.1854745753374516  0.4371367582148764   T   T   T
  0.0595770909285562  0.1854742239316991  0.9371346303685684   T   T   T
  0.7736627534569180  0.1663770371350282  0.1253659784661565   T   T   T
  0.7736547520487989  0.1663799304108551  0.6253622710089317   T   T   T
  0.2736554202512949  0.1664052857669986  0.1253799652834076   T   T   T
  0.2736583107273773  0.1664101973633549  0.6253792101491840   T   T   T
  0.7729054647062270  0.1665482521789983  0.3746103290076874   T   T   T
  0.7729079782230031  0.1665480369215828  0.8746012964071852   T   T   T
  0.2728886710799401  0.1665386993003466  0.3746174621613036   T   T   T
  0.2728978637822408  0.1665560851691978  0.8746022431739107   T   T   T
  0.7734909020226013  0.1849801364492549  0.2493077378049264   T   T   T
  0.7734911179303765  0.1849819034959097  0.7493055890440488   T   T   T
  0.2735267036800266  0.1852259800810359  0.2492673523413700   T   T   T
  0.2735318169383945  0.1852536083016005  0.7492520927070672   T   T   T
  0.7695954866249721  0.1880759572680830  0.0000297117621528   T   T   T
  0.7695804880788657  0.1880825028214161  0.5000481288278138   T   T   T
  0.2695927030355847  0.1880735842584471  0.0000286960272504   T   T   T
  0.2695461410896201  0.1880525013528924  0.5000569394698147   T   T   T
  0.5235404401273911  0.1938788660991122  0.1243911937112117   T   T   T
  0.5235446793024039  0.1938682562963834  0.6243923319951037   T   T   T
  0.0235378245037978  0.1938786683419522  0.1243911145952339   T   T   T
  0.0235363448538735  0.1938785819599147  0.6243916932181435   T   T   T
  0.5197829364321507  0.1882444566631349  0.3746276196479954   T   T   T
  0.5197781339107053  0.1882529741421664  0.8746202700272292   T   T   T
  0.0197530327003221  0.1881660217916306  0.3746041933145037   T   T   T
  0.0197529380055173  0.1881677063287910  0.8746066249584601   T   T   T
  0.5244458129988061  0.1755029792994733  0.2504172831879288   T   T   T
  0.5244440561839667  0.1755019494800152  0.7504101432221759   T   T   T
  0.0244382636832299  0.1754963622650365  0.2504085571941133   T   T   T
  0.0244373695989495  0.1754957152107224  0.7504095668988739   T   T   T
  0.5235817665864531  0.1666064798588920  0.0007398413306774   T   T   T
  0.5235932251390949  0.1666243190791761  0.5007377438442617   T   T   T
  0.0235849243978734  0.1665980769469755  0.0007408280049219   T   T   T
  0.0235799719526923  0.1665977692191234  0.5007419325730140   T   T   T
  0.9404763625137917  0.1673348803229402  0.1242002203880190   T   T   T
  0.9404748566780228  0.1673342527917967  0.6241969463466503   T   T   T
  0.4404711601397793  0.1673382779281027  0.1241987731787333   T   T   T
  0.4404793117345633  0.1673385975611623  0.6242013570725788   T   T   T
  0.9385222849610528  0.1668738556995137  0.3744982150001093   T   T   T
  0.9385421183686518  0.1668627321984104  0.8744910035629871   T   T   T
  0.4386843235887312  0.1671530315673735  0.3745411680799435   T   T   T
  0.4386793705385159  0.1671422555538271  0.8745447094016114   T   T   T
  0.9399516412277649  0.1856866572297236  0.2493104174625174   T   T   T
  0.9399525747509756  0.1856872748203173  0.7493091177282665   T   T   T
  0.4399519445800379  0.1856893161161182  0.2493102587266165   T   T   T
  0.4399516768698177  0.1856875091950059  0.7493122732734747   T   T   T
  0.9389872507733585  0.1849786099509529  0.9990909094710361   T   T   T
  0.9389967892920765  0.1849746282803437  0.4990918750584754   T   T   T
  0.4389650173043762  0.1849871043254012  0.9990884435852152   T   T   T
  0.4389659985813807  0.1849943270569128  0.4990813102373082   T   T   T
  0.6906413403117639  0.1850550172505550  0.1242401261983943   T   T   T
  0.6906419100936390  0.1850541389819398  0.6242384787293318   T   T   T
  0.1906396730352995  0.1850536073908415  0.1242401245368683   T   T   T
  0.1906432013395829  0.1850540050054619  0.6242409949717924   T   T   T
  0.6898135117798176  0.1852845338002638  0.3742908299118568   T   T   T
  0.6898165606314777  0.1852903406636841  0.8742862882435247   T   T   T
  0.1898172657089106  0.1852924436228776  0.3742872165479625   T   T   T
  0.1898150154404803  0.1852897504613438  0.8742869536571831   T   T   T
  0.6902103259940375  0.1664795042970724  0.2494891652140865   T   T   T
  0.6902145155487602  0.1664790671020384  0.7494804495940883   T   T   T
  0.1902271121732966  0.1664998677933553  0.2494821539888932   T   T   T
  0.1902287476509699  0.1665007877747726  0.7494837155332377   T   T   T
  0.6896496847917248  0.1663423672373341  0.9993007960294022   T   T   T
  0.6896617405969394  0.1663530652548317  0.4993009303922662   T   T   T
  0.1896482507328017  0.1663424096615955  0.9993006266826256   T   T   T
  0.1896347598309944  0.1663410122149216  0.4993099115487141   T   T   T
  0.4993313107092661  0.3706951047140734  0.5004933298614702   T   T   T
  0.6332770486871979  0.0880112134128268  0.4929689730307345   T   T   T
  0.6332369468304719  0.0878169161388627  0.9929513895037019   T   T   T
  0.1331744020087697  0.0877867916883801  0.4928250155138016   T   T   T
  0.1332148615091953  0.0878145051940962  0.9929073006724352   T   T   T
  0.7391282623584914  0.0827370705451713  0.4031335994708414   T   T   T
  0.7391328886234376  0.0827354039754908  0.9031297864832908   T   T   T
  0.2391368427820879  0.0827305330338461  0.4031322014265726   T   T   T
  0.2391393478819950  0.0827307011711653  0.9031317014782445   T   T   T
  0.7279440199326928  0.0840538340184054  0.1544966421418152   T   T   T
  0.7279406595472793  0.0840465037312086  0.6545108632541243   T   T   T
  0.2279379459683142  0.0840466962229840  0.1545032235189154   T   T   T
  0.2279392404121552  0.0840495098621545  0.6545017151324330   T   T   T
  0.5009803170493896  0.0919973701953509  0.2885183405397669   T   T   T
  0.5009810669210850  0.0919963022172965  0.7885178447754058   T   T   T
  0.0009054290842272  0.0920119288958574  0.2885156850732429   T   T   T
  0.0009075182415259  0.0920104031380475  0.7885159531259731   T   T   T
  0.4966817537831432  0.0893977946819433  0.0487570476354833   T   T   T
  0.4966323894826985  0.0893081659155754  0.5486984093861622   T   T   T
  0.9966833688742511  0.0893943460577873  0.0487604116298499   T   T   T
  0.9967172423032764  0.0894008588410671  0.5487946193334992   T   T   T
  0.6207179780192007  0.0927989009184813  0.2493938325353611   T   T   T
  0.6207084940950409  0.0927990935739942  0.7493891982939971   T   T   T
  0.1207144764582324  0.0927994586041621  0.2493838936430564   T   T   T
  0.1207020706884734  0.0928002842166791  0.7493864836552717   T   T   T
  0.8830865311845812  0.0878069024119270  0.3573837528213346   T   T   T
  0.8832047066414148  0.0878317306641989  0.8573899060188666   T   T   T
  0.3836494233254300  0.0900977112190944  0.3570863813716372   T   T   T
  0.3836659566870679  0.0901052218556799  0.8570882361047509   T   T   T
  0.8836105987086853  0.0901343156318575  0.1078040434961878   T   T   T
  0.8836100087934824  0.0901357956681750  0.6078022152552052   T   T   T
  0.3836117438357292  0.0901349894384467  0.1077988299124328   T   T   T
  0.3836129822905363  0.0901330909463454  0.6078011596191004   T   T   T
  0.3997081371404008  0.3750175219377709  0.4419553961533751   T   T   T
  0.4850069087527160  0.3726897262846691  0.3929865804732415   T   T   T
  0.3950940664784071  0.3751673390709271  0.5591624983440795   T   T   T
  0.4849261358252193  0.3695023743951040  0.6019434442701268   T   T   T
  0.4616811817987241  0.3703782414199139  0.4388784014332998   T   T   T
  0.4524999123081912  0.3703435162829365  0.5601806281378998   T   T   T
  0.6904264303494045  0.0972644691713995  0.4888419392570000   T   T   T
  0.6904114714698224  0.0972620010850562  0.9888516097494886   T   T   T
  0.1904065704444236  0.0972854693598180  0.4888665288686269   T   T   T
  0.1903906792962289  0.0972593325574707  0.9888757307350318   T   T   T
  0.7737043296963364  0.0972776646780815  0.3652575892581922   T   T   T
  0.7737888634102816  0.0972618721052569  0.8653857421685345   T   T   T
  0.2737913923435258  0.0972670322004987  0.3653917153699382   T   T   T
  0.2737903964365955  0.0972663140473315  0.8653904638099235   T   T   T
  0.7737059445681638  0.0931357425613584  0.1248098642950168   T   T   T
  0.7737047790028129  0.0931337978049314  0.6248121616209801   T   T   T
  0.2737045685656909  0.0931373299207152  0.1248217974209069   T   T   T
  0.2737066775160670  0.0931379619811210  0.6248216474227632   T   T   T
  0.5348564666671862  0.1064572407671562  0.2500184700234911   T   T   T
  0.5348593310693204  0.1064568451215493  0.7500189067266803   T   T   T
  0.0348638757362352  0.1064618051973198  0.2500136858953965   T   T   T
  0.0348643214608302  0.1064623637640523  0.7500134855916656   T   T   T
  0.5347874301992519  0.0981485976817780  0.0097548203949813   T   T   T
  0.5348144549519276  0.0981579300867779  0.5097434483520047   T   T   T
  0.0347875041139574  0.0981627961401728  0.0097615172081973   T   T   T
  0.0347910026597518  0.0981470363049581  0.5097555578271766   T   T   T
  0.6786062758245635  0.0972703991673995  0.2492099920014184   T   T   T
  0.6785770147156356  0.0972895474526894  0.7492866732571599   T   T   T
  0.1786705113029470  0.0972649617016543  0.2490802299605335   T   T   T
  0.1786489137773515  0.0972587445512900  0.7490091512211094   T   T   T
  0.9409152369454432  0.0973098392536116  0.3634225107816249   T   T   T
  0.9404731443888892  0.0974856452816510  0.8638778804421676   T   T   T
  0.4404544500881826  0.1013750891415697  0.3641516629740593   T   T   T
  0.4401382926165525  0.1013454838744821  0.8641733087989394   T   T   T
  0.9403312161813702  0.1012855509927135  0.1143201527570739   T   T   T
  0.9403322554907589  0.1012840852768804  0.6143215108807354   T   T   T
  0.4403315769719427  0.1012851663860275  0.1143230593476972   T   T   T
  0.4403275536795448  0.1012840219734414  0.6143239184641160   T   T   T
  0.5952798969395303  0.2455793724667856  0.4383898373808819   T   T   T
  0.5952854232001314  0.2455947865436201  0.9383996468481897   T   T   T
  0.0952681280005692  0.2455690470467857  0.4384070971584535   T   T   T
  0.0952852206713715  0.2455933406085151  0.9383989960959411   T   T   T
  0.6072413926863902  0.2506175725810849  0.1880109634231033   T   T   T
  0.6072405964470491  0.2506184382199521  0.6880127204034778   T   T   T
  0.1072418449650456  0.2506188255399877  0.1880118600857799   T   T   T
  0.1072425263466172  0.2506188492287151  0.6880116232967026   T   T   T
  0.7736282579811729  0.2455993875510245  0.4678939966089786   T   T   T
  0.7736534060952351  0.2456063431800146  0.9678839592802291   T   T   T
  0.2736522635927372  0.2456247848396202  0.4678869154767114   T   T   T
  0.2736711470481481  0.2456142713742651  0.9678952270628614   T   T   T
  0.8453094811088491  0.2500616469976293  0.3146237435490278   T   T   T
  0.8452748904464613  0.2500600076781296  0.8146138194642205   T   T   T
  0.3453040637179612  0.2500679246403763  0.3146152147454799   T   T   T
  0.3452995946497239  0.2500628228133621  0.8146125210681774   T   T   T
  0.8570025466050666  0.2506305031596412  0.0630001631147081   T   T   T
  0.8570512330384332  0.2506153888654623  0.5630100667905253   T   T   T
  0.3571685225507366  0.2507075269990509  0.0630192262483433   T   T   T
  0.3570339490872882  0.2506007836875810  0.5629933554765714   T   T   T
  0.5356040072883843  0.2505065284013881  0.0932324834125495   T   T   T
  0.5355646978466524  0.2505177074645175  0.5932457322109883   T   T   T
  0.0356052431413545  0.2505052113563409  0.0932319600768494   T   T   T
  0.0356065457782577  0.2505055884090055  0.5932316963729534   T   T   T
  0.5355145178554466  0.2495696197111812  0.3433134171862662   T   T   T
  0.5355146099847090  0.2495713239738606  0.8433159446461644   T   T   T
  0.0355171802521212  0.2495669621983225  0.3433164280304126   T   T   T
  0.0355162343845947  0.2495669644881318  0.8433162915438288   T   T   T
  0.7962790423802346  0.2409507597509446  0.2174394376972870   T   T   T
  0.7962530990835859  0.2409359210458106  0.7174217698395395   T   T   T
  0.2959930766841623  0.2412450916913613  0.2174164083563070   T   T   T
  0.2958163379746210  0.2419201739159575  0.7176205610887720   T   T   T
  0.5953526728530960  0.3749771478219728  0.5026529006519880   T   T   T
 
  0.00000000E+00  0.00000000E+00  0.00000000E+00
  0.00000000E+00  0.00000000E+00  0.00000000E+00
  0.00000000E+00  0.00000000E+00  0.00000000E+00
  0.00000000E+00  0.00000000E+00  0.00000000E+00
  0.00000000E+00  0.00000000E+00  0.00000000E+00
  0.00000000E+00  0.00000000E+00  0.00000000E+00
  0.00000000E+00  0.00000000E+00  0.00000000E+00
  0.00000000E+00  0.00000000E+00  0.00000000E+00
  0.00000000E+00  0.00000000E+00  0.00000000E+00
  0.00000000E+00  0.00000000E+00  0.00000000E+00
  0.00000000E+00  0.00000000E+00  0.00000000E+00
  0.00000000E+00  0.00000000E+00  0.00000000E+00
  0.00000000E+00  0.00000000E+00  0.00000000E+00
  0.00000000E+00  0.00000000E+00  0.00000000E+00
  0.00000000E+00  0.00000000E+00  0.00000000E+00
  0.00000000E+00  0.00000000E+00  0.00000000E+00
  0.00000000E+00  0.00000000E+00  0.00000000E+00
  0.00000000E+00  0.00000000E+00  0.00000000E+00
  0.00000000E+00  0.00000000E+00  0.00000000E+00
  0.00000000E+00  0.00000000E+00  0.00000000E+00
  0.00000000E+00  0.00000000E+00  0.00000000E+00
  0.00000000E+00  0.00000000E+00  0.00000000E+00
  0.00000000E+00  0.00000000E+00  0.00000000E+00
  0.00000000E+00  0.00000000E+00  0.00000000E+00
  0.00000000E+00  0.00000000E+00  0.00000000E+00
  0.00000000E+00  0.00000000E+00  0.00000000E+00
  0.00000000E+00  0.00000000E+00  0.00000000E+00
  0.00000000E+00  0.00000000E+00  0.00000000E+00
  0.00000000E+00  0.00000000E+00  0.00000000E+00
  0.00000000E+00  0.00000000E+00  0.00000000E+00
  0.00000000E+00  0.00000000E+00  0.00000000E+00
  0.00000000E+00  0.00000000E+00  0.00000000E+00
  0.00000000E+00  0.00000000E+00  0.00000000E+00
  0.00000000E+00  0.00000000E+00  0.00000000E+00
  0.00000000E+00  0.00000000E+00  0.00000000E+00
  0.00000000E+00  0.00000000E+00  0.00000000E+00
  0.00000000E+00  0.00000000E+00  0.00000000E+00
  0.00000000E+00  0.00000000E+00  0.00000000E+00
  0.00000000E+00  0.00000000E+00  0.00000000E+00
  0.00000000E+00  0.00000000E+00  0.00000000E+00
  0.00000000E+00  0.00000000E+00  0.00000000E+00
  0.00000000E+00  0.00000000E+00  0.00000000E+00
  0.00000000E+00  0.00000000E+00  0.00000000E+00
  0.00000000E+00  0.00000000E+00  0.00000000E+00
  0.00000000E+00  0.00000000E+00  0.00000000E+00
  0.00000000E+00  0.00000000E+00  0.00000000E+00
  0.00000000E+00  0.00000000E+00  0.00000000E+00
  0.00000000E+00  0.00000000E+00  0.00000000E+00
  0.00000000E+00  0.00000000E+00  0.00000000E+00
  0.00000000E+00  0.00000000E+00  0.00000000E+00
  0.00000000E+00  0.00000000E+00  0.00000000E+00
  0.00000000E+00  0.00000000E+00  0.00000000E+00
  0.00000000E+00  0.00000000E+00  0.00000000E+00
  0.00000000E+00  0.00000000E+00  0.00000000E+00
  0.00000000E+00  0.00000000E+00  0.00000000E+00
  0.00000000E+00  0.00000000E+00  0.00000000E+00
  0.00000000E+00  0.00000000E+00  0.00000000E+00
  0.00000000E+00  0.00000000E+00  0.00000000E+00
  0.00000000E+00  0.00000000E+00  0.00000000E+00
  0.00000000E+00  0.00000000E+00  0.00000000E+00
  0.00000000E+00  0.00000000E+00  0.00000000E+00
  0.00000000E+00  0.00000000E+00  0.00000000E+00
  0.00000000E+00  0.00000000E+00  0.00000000E+00
  0.00000000E+00  0.00000000E+00  0.00000000E+00
  0.00000000E+00  0.00000000E+00  0.00000000E+00
  0.00000000E+00  0.00000000E+00  0.00000000E+00
  0.00000000E+00  0.00000000E+00  0.00000000E+00
  0.00000000E+00  0.00000000E+00  0.00000000E+00
  0.00000000E+00  0.00000000E+00  0.00000000E+00
  0.00000000E+00  0.00000000E+00  0.00000000E+00
  0.00000000E+00  0.00000000E+00  0.00000000E+00
  0.00000000E+00  0.00000000E+00  0.00000000E+00
  0.00000000E+00  0.00000000E+00  0.00000000E+00
  0.00000000E+00  0.00000000E+00  0.00000000E+00
  0.00000000E+00  0.00000000E+00  0.00000000E+00
  0.00000000E+00  0.00000000E+00  0.00000000E+00
  0.00000000E+00  0.00000000E+00  0.00000000E+00
  0.00000000E+00  0.00000000E+00  0.00000000E+00
  0.00000000E+00  0.00000000E+00  0.00000000E+00
  0.00000000E+00  0.00000000E+00  0.00000000E+00
  0.00000000E+00  0.00000000E+00  0.00000000E+00
  0.00000000E+00  0.00000000E+00  0.00000000E+00
  0.00000000E+00  0.00000000E+00  0.00000000E+00
  0.00000000E+00  0.00000000E+00  0.00000000E+00
  0.00000000E+00  0.00000000E+00  0.00000000E+00
  0.00000000E+00  0.00000000E+00  0.00000000E+00
  0.00000000E+00  0.00000000E+00  0.00000000E+00
  0.00000000E+00  0.00000000E+00  0.00000000E+00
  0.00000000E+00  0.00000000E+00  0.00000000E+00
  0.00000000E+00  0.00000000E+00  0.00000000E+00
  0.00000000E+00  0.00000000E+00  0.00000000E+00
  0.00000000E+00  0.00000000E+00  0.00000000E+00
  0.00000000E+00  0.00000000E+00  0.00000000E+00
  0.00000000E+00  0.00000000E+00  0.00000000E+00
  0.00000000E+00  0.00000000E+00  0.00000000E+00
  0.00000000E+00  0.00000000E+00  0.00000000E+00
  0.00000000E+00  0.00000000E+00  0.00000000E+00
  0.00000000E+00  0.00000000E+00  0.00000000E+00
  0.00000000E+00  0.00000000E+00  0.00000000E+00
  0.00000000E+00  0.00000000E+00  0.00000000E+00
  0.00000000E+00  0.00000000E+00  0.00000000E+00
  0.00000000E+00  0.00000000E+00  0.00000000E+00
  0.00000000E+00  0.00000000E+00  0.00000000E+00
  0.00000000E+00  0.00000000E+00  0.00000000E+00
  0.00000000E+00  0.00000000E+00  0.00000000E+00
  0.00000000E+00  0.00000000E+00  0.00000000E+00
  0.00000000E+00  0.00000000E+00  0.00000000E+00
  0.00000000E+00  0.00000000E+00  0.00000000E+00
  0.00000000E+00  0.00000000E+00  0.00000000E+00
  0.00000000E+00  0.00000000E+00  0.00000000E+00
  0.00000000E+00  0.00000000E+00  0.00000000E+00
  0.00000000E+00  0.00000000E+00  0.00000000E+00
  0.00000000E+00  0.00000000E+00  0.00000000E+00
  0.00000000E+00  0.00000000E+00  0.00000000E+00
  0.00000000E+00  0.00000000E+00  0.00000000E+00
  0.00000000E+00  0.00000000E+00  0.00000000E+00
  0.00000000E+00  0.00000000E+00  0.00000000E+00
  0.00000000E+00  0.00000000E+00  0.00000000E+00
  0.00000000E+00  0.00000000E+00  0.00000000E+00
  0.00000000E+00  0.00000000E+00  0.00000000E+00
  0.00000000E+00  0.00000000E+00  0.00000000E+00
  0.00000000E+00  0.00000000E+00  0.00000000E+00
  0.00000000E+00  0.00000000E+00  0.00000000E+00
  0.00000000E+00  0.00000000E+00  0.00000000E+00
  0.00000000E+00  0.00000000E+00  0.00000000E+00
  0.00000000E+00  0.00000000E+00  0.00000000E+00
  0.00000000E+00  0.00000000E+00  0.00000000E+00
  0.00000000E+00  0.00000000E+00  0.00000000E+00
  0.00000000E+00  0.00000000E+00  0.00000000E+00
  0.00000000E+00  0.00000000E+00  0.00000000E+00
  0.00000000E+00  0.00000000E+00  0.00000000E+00
  0.00000000E+00  0.00000000E+00  0.00000000E+00
  0.00000000E+00  0.00000000E+00  0.00000000E+00
  0.00000000E+00  0.00000000E+00  0.00000000E+00
  0.00000000E+00  0.00000000E+00  0.00000000E+00
  0.00000000E+00  0.00000000E+00  0.00000000E+00
  0.00000000E+00  0.00000000E+00  0.00000000E+00
  0.00000000E+00  0.00000000E+00  0.00000000E+00
  0.00000000E+00  0.00000000E+00  0.00000000E+00
  0.00000000E+00  0.00000000E+00  0.00000000E+00
  0.00000000E+00  0.00000000E+00  0.00000000E+00
  0.00000000E+00  0.00000000E+00  0.00000000E+00
  0.00000000E+00  0.00000000E+00  0.00000000E+00
  0.00000000E+00  0.00000000E+00  0.00000000E+00
  0.00000000E+00  0.00000000E+00  0.00000000E+00
  0.00000000E+00  0.00000000E+00  0.00000000E+00
  0.00000000E+00  0.00000000E+00  0.00000000E+00
  0.00000000E+00  0.00000000E+00  0.00000000E+00
  0.00000000E+00  0.00000000E+00  0.00000000E+00
  0.00000000E+00  0.00000000E+00  0.00000000E+00
  0.00000000E+00  0.00000000E+00  0.00000000E+00
  0.00000000E+00  0.00000000E+00  0.00000000E+00
  0.00000000E+00  0.00000000E+00  0.00000000E+00
  0.00000000E+00  0.00000000E+00  0.00000000E+00
  0.00000000E+00  0.00000000E+00  0.00000000E+00
  0.00000000E+00  0.00000000E+00  0.00000000E+00
  0.00000000E+00  0.00000000E+00  0.00000000E+00
  0.00000000E+00  0.00000000E+00  0.00000000E+00
  0.00000000E+00  0.00000000E+00  0.00000000E+00
  0.00000000E+00  0.00000000E+00  0.00000000E+00
  0.00000000E+00  0.00000000E+00  0.00000000E+00
  0.00000000E+00  0.00000000E+00  0.00000000E+00
  0.00000000E+00  0.00000000E+00  0.00000000E+00
  0.00000000E+00  0.00000000E+00  0.00000000E+00
  0.00000000E+00  0.00000000E+00  0.00000000E+00
  0.00000000E+00  0.00000000E+00  0.00000000E+00
  0.00000000E+00  0.00000000E+00  0.00000000E+00
  0.00000000E+00  0.00000000E+00  0.00000000E+00
  0.00000000E+00  0.00000000E+00  0.00000000E+00
  0.00000000E+00  0.00000000E+00  0.00000000E+00
  0.00000000E+00  0.00000000E+00  0.00000000E+00
  0.00000000E+00  0.00000000E+00  0.00000000E+00
  0.00000000E+00  0.00000000E+00  0.00000000E+00
  0.00000000E+00  0.00000000E+00  0.00000000E+00
  0.00000000E+00  0.00000000E+00  0.00000000E+00
  0.00000000E+00  0.00000000E+00  0.00000000E+00
  0.00000000E+00  0.00000000E+00  0.00000000E+00
  0.00000000E+00  0.00000000E+00  0.00000000E+00
  0.00000000E+00  0.00000000E+00  0.00000000E+00
  0.00000000E+00  0.00000000E+00  0.00000000E+00
  0.00000000E+00  0.00000000E+00  0.00000000E+00
  0.00000000E+00  0.00000000E+00  0.00000000E+00
  0.00000000E+00  0.00000000E+00  0.00000000E+00
  0.00000000E+00  0.00000000E+00  0.00000000E+00
  0.00000000E+00  0.00000000E+00  0.00000000E+00
  0.00000000E+00  0.00000000E+00  0.00000000E+00
  0.00000000E+00  0.00000000E+00  0.00000000E+00
  0.00000000E+00  0.00000000E+00  0.00000000E+00
  0.00000000E+00  0.00000000E+00  0.00000000E+00
  0.00000000E+00  0.00000000E+00  0.00000000E+00
  0.00000000E+00  0.00000000E+00  0.00000000E+00
  0.00000000E+00  0.00000000E+00  0.00000000E+00
  0.00000000E+00  0.00000000E+00  0.00000000E+00
  0.00000000E+00  0.00000000E+00  0.00000000E+00
  0.00000000E+00  0.00000000E+00  0.00000000E+00
  0.00000000E+00  0.00000000E+00  0.00000000E+00
  0.00000000E+00  0.00000000E+00  0.00000000E+00
  0.00000000E+00  0.00000000E+00  0.00000000E+00
  0.00000000E+00  0.00000000E+00  0.00000000E+00
  0.00000000E+00  0.00000000E+00  0.00000000E+00
  0.00000000E+00  0.00000000E+00  0.00000000E+00
  0.00000000E+00  0.00000000E+00  0.00000000E+00
  0.00000000E+00  0.00000000E+00  0.00000000E+00
  0.00000000E+00  0.00000000E+00  0.00000000E+00
  0.00000000E+00  0.00000000E+00  0.00000000E+00
  0.00000000E+00  0.00000000E+00  0.00000000E+00
  0.00000000E+00  0.00000000E+00  0.00000000E+00
  0.00000000E+00  0.00000000E+00  0.00000000E+00
  0.00000000E+00  0.00000000E+00  0.00000000E+00
  0.00000000E+00  0.00000000E+00  0.00000000E+00
  0.00000000E+00  0.00000000E+00  0.00000000E+00
  0.00000000E+00  0.00000000E+00  0.00000000E+00
  0.00000000E+00  0.00000000E+00  0.00000000E+00
  0.00000000E+00  0.00000000E+00  0.00000000E+00
  0.00000000E+00  0.00000000E+00  0.00000000E+00
  0.00000000E+00  0.00000000E+00  0.00000000E+00
  0.00000000E+00  0.00000000E+00  0.00000000E+00
  0.00000000E+00  0.00000000E+00  0.00000000E+00
  0.00000000E+00  0.00000000E+00  0.00000000E+00
  0.00000000E+00  0.00000000E+00  0.00000000E+00
  0.00000000E+00  0.00000000E+00  0.00000000E+00
  0.00000000E+00  0.00000000E+00  0.00000000E+00
  0.00000000E+00  0.00000000E+00  0.00000000E+00
  0.00000000E+00  0.00000000E+00  0.00000000E+00
  0.00000000E+00  0.00000000E+00  0.00000000E+00
  0.00000000E+00  0.00000000E+00  0.00000000E+00
  0.00000000E+00  0.00000000E+00  0.00000000E+00
  0.00000000E+00  0.00000000E+00  0.00000000E+00
  0.00000000E+00  0.00000000E+00  0.00000000E+00
  0.00000000E+00  0.00000000E+00  0.00000000E+00
  0.00000000E+00  0.00000000E+00  0.00000000E+00
  0.00000000E+00  0.00000000E+00  0.00000000E+00
