C H N O S                               
   1.00000000000000     
    17.0814999999999984    0.0000000000000000    0.0000000000000000
     0.0000000000000000   20.0000000000000000    0.0000000000000000
     0.0000000000000000    0.0000000000000000   19.7743000000000002
   C    H    N    O    S 
   131    31     1    40     1
Selective dynamics
Direct
  0.1087697771960756  0.1148440221247998  0.0329128964773541   T   T   T
  0.0908399367952012  0.1242552910889356  0.2896867657054192   T   T   T
  0.1007241846840987  0.1246081917469683  0.5387862482748448   T   T   T
  0.1144020232149721  0.1268239056096875  0.7884576823307752   T   T   T
  0.6001297806644295  0.1224177032887009  0.0306357304677612   T   T   T
  0.5959936602771666  0.1262359591484953  0.2910987403642961   T   T   T
  0.6069950502182947  0.1357396295234970  0.5361377498406585   T   T   T
  0.5999152184035409  0.1086048158628794  0.7868605984012029   T   T   T
  0.0960351908181432  0.0941631011713245  0.1649669101310619   T   T   T
  0.0921909891005788  0.1130179928160234  0.4059590728893858   T   T   T
  0.0932119418490439  0.1118184274128758  0.6645759681154505   T   T   T
  0.0995044675240414  0.1065257714531917  0.9057243846057242   T   T   T
  0.6004498378289080  0.1091556127658785  0.1534778982174335   T   T   T
  0.6005356942146350  0.1118376766372213  0.4193893604864974   T   T   T
  0.5950494659272677  0.1059658524286018  0.6526843182286212   T   T   T
  0.6054749537939480  0.1316430845675965  0.9200703761615110   T   T   T
  0.3490620706903908  0.1173711092440731  0.0434415142548564   T   T   T
  0.3466588174619062  0.1156612393760890  0.2862294439499625   T   T   T
  0.3439645809005653  0.1493552581782101  0.5488181267709281   T   T   T
  0.3563393482495147  0.1290474929493200  0.7858704278936030   T   T   T
  0.8622920161919059  0.1103395475446510  0.0273149689514954   T   T   T
  0.8455027313086382  0.1220161811949186  0.2843093413596856   T   T   T
  0.8523590343589954  0.1217662991171323  0.5337593271141257   T   T   T
  0.8555955197712150  0.1040721836566995  0.7884724354165679   T   T   T
  0.3436643754254127  0.1034451055325004  0.1572286408400252   T   T   T
  0.3446159044675731  0.1102317817523012  0.4186344415990595   T   T   T
  0.3457822199299932  0.0985120214951855  0.6605661624528470   T   T   T
  0.3454576523573722  0.1197070890269059  0.9196807133183672   T   T   T
  0.8493773151813141  0.1023082668936063  0.1579258432160972   T   T   T
  0.8371810892709475  0.1135218892321598  0.4029173491002869   T   T   T
  0.8525375022530421  0.1021423429567827  0.6634877743587067   T   T   T
  0.8505161550693556  0.1084311688268865  0.9125489203611203   T   T   T
  0.1883978818198517  0.0966569119177599  0.0332247086524531   T   T   T
  0.1748199247501357  0.1066666304261818  0.2878465964156118   T   T   T
  0.1788999202371368  0.1172621288494992  0.5361675339047604   T   T   T
  0.1949591782720929  0.1238421010311953  0.7864874767156597   T   T   T
  0.6817739859911043  0.1151035798608203  0.0359970185313071   T   T   T
  0.6745828965674739  0.1095239907398452  0.2893584938599384   T   T   T
  0.6809989573787141  0.1362577952011004  0.5424332816268262   T   T   T
  0.6853845782115813  0.0974786554371355  0.7890830604109946   T   T   T
  0.1720153756028785  0.1291832467097298  0.1670435014077381   T   T   T
  0.1922555526438413  0.1156783948533135  0.4131926912054760   T   T   T
  0.1843317750912139  0.1357821932314270  0.6564076230454369   T   T   T
  0.1881705118706485  0.1138751931652396  0.9147372400783667   T   T   T
  0.6803352259177862  0.1102202546359736  0.1651975252631415   T   T   T
  0.6812112353767795  0.1268921274674697  0.4266391541022442   T   T   T
  0.6821006705277579  0.1065314129171800  0.6607113376842054   T   T   T
  0.6944248546679861  0.1413634179339175  0.9130914742944966   T   T   T
  0.4273928244072044  0.0955900572448702  0.0500120614364510   T   T   T
  0.4391975506625976  0.1140419383601196  0.2917594452159736   T   T   T
  0.4325750516556179  0.1150007203143067  0.5367513613113473   T   T   T
  0.4425276459689651  0.1076955560590410  0.7894240518872344   T   T   T
  0.9477133717903267  0.1051669647296573  0.0262775625472129   T   T   T
  0.9265762330348168  0.1139299062511373  0.2895532845595958   T   T   T
  0.9272688171348152  0.1133940273772380  0.5325082616838044   T   T   T
  0.9313483098639205  0.1228626415583451  0.7810643622738274   T   T   T
  0.4326407540918644  0.1238580681121722  0.1667341763307968   T   T   T
  0.4376733509153747  0.1196773300813902  0.4191899170813870   T   T   T
  0.4380404355932230  0.1241971712219811  0.6563906727779110   T   T   T
  0.4291901581039621  0.1230516539149171  0.9201599612123157   T   T   T
  0.9259825178217451  0.1367985255172769  0.1422208950505997   T   T   T
  0.9252249697283085  0.1236344994527578  0.4240665669989603   T   T   T
  0.9412078290657936  0.1260033446955049  0.6589544912229941   T   T   T
  0.9471399960112133  0.1272177757157949  0.9159211849386445   T   T   T
  0.2192269718554271  0.1008396865013452  0.1051997687058546   T   T   T
  0.2283533343766656  0.1063580612507124  0.3538219917377120   T   T   T
  0.2227152135928238  0.0970353406064766  0.5938103713765343   T   T   T
  0.2289030309211452  0.1070449042301903  0.8463227418138176   T   T   T
  0.7299404926035015  0.1045735926406492  0.1008954043051402   T   T   T
  0.7125065440229792  0.1015441326434536  0.3556659631851394   T   T   T
  0.7282940773072571  0.1095266153162993  0.6038891653473852   T   T   T
  0.7291049031715180  0.1146784775714580  0.8480204279439479   T   T   T
  0.2155945138654948  0.0922129240589808  0.2306398339003942   T   T   T
  0.2138415814591750  0.1000345557444964  0.4791961116692793   T   T   T
  0.2408350071555596  0.1271042936397320  0.7227394552166249   T   T   T
  0.2312643790447121  0.1141889488571739  0.9675509327868741   T   T   T
  0.7267497242457159  0.1053580307622862  0.2221078383954183   T   T   T
  0.7250365068313670  0.1378926671209961  0.4859039938542461   T   T   T
  0.7218955815880942  0.0988158402519200  0.7217890334485773   T   T   T
  0.7231448022589668  0.1115129239772585  0.9764699443538778   T   T   T
  0.4819416222143984  0.1182478604293423  0.1023244343286555   T   T   T
  0.4755524707325975  0.1233475827096356  0.3626085191867537   T   T   T
  0.4731249093058567  0.1139222443264967  0.5907140667026133   T   T   T
  0.4762892804872612  0.1145109783390492  0.8496084146485962   T   T   T
  0.9796693610699566  0.1162757801179174  0.0898056531154895   T   T   T
  0.9668236037351839  0.1339452729012499  0.3577446393242096   T   T   T
  0.9750675126735711  0.1267802726157302  0.5954336534369749   T   T   T
  0.9794675419243140  0.1209873512822389  0.8478691211926954   T   T   T
  0.4756166272949025  0.1041468557624611  0.2247312913803549   T   T   T
  0.4738841531214845  0.1200630547540533  0.4708810479385660   T   T   T
  0.4804159828246427  0.1184976934121669  0.7271841698114416   T   T   T
  0.4665745370164984  0.0911074367407243  0.9750937572397237   T   T   T
  0.9708821241659883  0.1125964377057913  0.2206922835982089   T   T   T
  0.9744724373235176  0.1169920953774579  0.4742592171209944   T   T   T
  0.9868747261026704  0.1205523950247004  0.7261639229631527   T   T   T
  0.9907230532868783  0.1162827508321694  0.9693358129558325   T   T   T
  0.0583236220837478  0.1076966728552585  0.0979690699424243   T   T   T
  0.0502900310524311  0.1170570872344132  0.3475309115096089   T   T   T
  0.0511822508781305  0.1351881835578131  0.5979655540312734   T   T   T
  0.0652749158128566  0.1171747257056244  0.8451337219562145   T   T   T
  0.5639403468223412  0.1400989345211382  0.0958747171885361   T   T   T
  0.5699175639036655  0.1412447118216656  0.3578197407368797   T   T   T
  0.5586047914526575  0.1216602953758824  0.5880716919167869   T   T   T
  0.5512881358011401  0.1350998135074162  0.8479593823907245   T   T   T
  0.0563804454092065  0.1281482802939882  0.2196658863577974   T   T   T
  0.0591671387875351  0.1334203564452139  0.4759208628485388   T   T   T
  0.0687920246545257  0.1296579607370473  0.7272288384889471   T   T   T
  0.0723243535090610  0.1324669609076295  0.9677509040413854   T   T   T
  0.5581532397560951  0.1269912863978533  0.2154624683944879   T   T   T
  0.5561591630846271  0.1221273930748151  0.4772372602321747   T   T   T
  0.5587165595003115  0.1145821648061428  0.7210877839965633   T   T   T
  0.5532378206313533  0.1093068262517587  0.9798157570966369   T   T   T
  0.2986307216181218  0.1192693594833853  0.0967393725372585   T   T   T
  0.3147816857615245  0.1237467153562432  0.3458753816003322   T   T   T
  0.2993913102688623  0.1048417534199481  0.6007100726329173   T   T   T
  0.3115838337387155  0.1179989689226429  0.8519801600532659   T   T   T
  0.8108509851572627  0.1110834920546818  0.0894672147500843   T   T   T
  0.7932080850069385  0.1076216241991716  0.3432133029542332   T   T   T
  0.8124265224265035  0.1238155382597668  0.5933767509921901   T   T   T
  0.8178362944766004  0.0958287035876934  0.8453402905420863   T   T   T
  0.2987621635289778  0.1137751042819303  0.2167317853256229   T   T   T
  0.2968853111284872  0.1148349577576449  0.4884636030135973   T   T   T
  0.3143123196292756  0.1179549262182280  0.7232355173574885   T   T   T
  0.3069855307868847  0.1197751366484193  0.9738021340852087   T   T   T
  0.8057707875358826  0.1129846974166254  0.2214732121115964   T   T   T
  0.7971593001909466  0.1335380727560253  0.4767036580524731   T   T   T
  0.8018832125108336  0.1109175948245204  0.7220466693415173   T   T   T
  0.8062946886436567  0.1201568087116941  0.9722041298583669   T   T   T
  0.5152973567543100  0.3072479798267202  0.4887029011410545   T   T   T
  0.5879771499268762  0.3465831491102951  0.4883551621994645   T   T   T
  0.4520703064976546  0.3494819655830180  0.5438572506475764   T   T   T
 -0.0024980850528659  0.2133046602047522  0.4280244869266318   T   T   T
  0.0392836441970557  0.2330622703872641  0.9565069955412139   T   T   T
  0.2216389966873776  0.1951083812675591  0.1105286123665735   T   T   T
  0.1419413288949087  0.2057648698365088  0.5816696489371814   T   T   T
  0.6420129394026362  0.2427150996553400  0.4079690163136679   T   T   T
  0.7250603096328591  0.2450457311058354  0.8471489793563081   T   T   T
  0.4939977147521268 -0.0062561017623464  1.0270844573442917   T   T   T
  0.0759560599351494  0.0095250818548644  0.1780079671124704   T   T   T
  0.0428695299647129 -0.0146487112637079  0.7319012032755665   T   T   T
  0.0489411921339643  0.0272870351027213  0.9482569076046563   T   T   T
  0.5769746312220947  0.0182873610213732  0.2160620248345698   T   T   T
  0.5420686552621404  0.0123343331223864  0.4182461676127919   T   T   T
  0.5269752969177157 -0.0035983201466525  0.6598290330829146   T   T   T
  0.2813015246375902  0.0113283262938024  0.4226248584007936   T   T   T
  0.3671816218020402  0.0233733469578648  0.6041700619341998   T   T   T
  0.8485411897092153 -0.0000706628068665  0.1139013734363739   T   T   T
  0.8047691710549463  0.0050557811566222  0.7058904243186569   T   T   T
  0.8108898283298438  0.0001561460065595  0.8677343454638607   T   T   T
  0.4639604162958013  0.2342330848481416  0.2098886714033598   T   T   T
  0.4432405493069049  0.2244334996364238  0.7413220246067437   T   T   T
  0.3867537587075816  0.2267698023027744  0.9271887624719254   T   T   T
  0.9100154501051908  0.2286253483895543  0.1332005027672062   T   T   T
  0.8743575116337305  0.2204914878123970  0.6357693989865228   T   T   T
  0.8609351194495418  0.2464709302744577  0.9425588136926163   T   T   T
  0.5165039959506217  0.2644076280512270  0.5241074677099410   T   T   T
  0.6184811537291162  0.3147567666149473  0.4468437913153017   T   T   T
  0.5765129268865179  0.3933284051329768  0.4866815390438216   T   T   T
  0.4216300608227381  0.2740804006944484  0.4335014919983822   T   T   T
  0.5188440129192843  0.3057270075859790  0.3908605094511184   T   T   T
  0.5508173962357943  0.3668425559497885  0.5867600515298046   T   T   T
  0.3881984228740443  0.3221426513388251  0.6157498001568035   T   T   T
  0.4724867731413226  0.3109555689419158  0.4278550446436808   T   T   T
  0.3332056246685055  0.1874706823906223  0.0789962781505089   T   T   T
  0.3387300782985807  0.1921265390872915  0.8309962628609968   T   T   T
  0.8232110735975204  0.1745182093071408  0.0668444594438009   T   T   T
  0.8105020384375944  0.2007987180566476  0.5724696667995332   T   T   T
  0.2155084969809876  0.0370908566755456  0.0656954476407434   T   T   T
  0.2104899228293517  0.0506899949512048  0.3192586646377550   T   T   T
  0.2315500430261836  0.0333689717407028  0.8255084150851585   T   T   T
  0.6973810797965482  0.0362962496952470  0.0817481942400768   T   T   T
  0.7010403497051918  0.0360216038090244  0.3287196022809375   T   T   T
  0.7134671479057949  0.0303576670805740  0.8174068732102041   T   T   T
  0.4553484575336339  0.0438290013334570  0.0878658813256407   T   T   T
  0.4709064402803489  0.0627070182428660  0.3307360862005987   T   T   T
  0.9684664812271901  0.0589633173019656  0.3179125528513425   T   T   T
  0.9880093369475592  0.0495706770170156  0.8190312349982972   T   T   T
  0.0399067215026342  0.2265700389159057  0.4586478080050496   T   T   T
  0.0853206976968803  0.2056870346383313  0.9484412902739825   T   T   T
  0.1974828121368273  0.1979544740613393  0.1704272961584158   T   T   T
  0.1818101243178928  0.2127906512828597  0.6262565166005661   T   T   T
  0.7007191094632877  0.1921273106088738  0.4091184255959136   T   T   T
  0.7324387090151979  0.2314990821107502  0.9088432773509528   T   T   T
  0.4797234572286185  0.0138999332027166  0.9684509718512151   T   T   T
  0.1199694535214632  0.0245747762677712  0.1701266640845327   T   T   T
  0.1068903824627910  0.0311980183694453  0.6578304308836892   T   T   T
  0.0951710906322208  0.0337588649353478  0.9153311377480626   T   T   T
  0.6006448108459298  0.0212256539113725  0.1695213944377930   T   T   T
  0.5871747679489089  0.0333456854806548  0.3827051730276563   T   T   T
  0.5830103499964262  0.0049820419655888  0.6719349004335009   T   T   T
  0.3339561374399927  0.0256269082893373  0.4132964774951829   T   T   T
  0.3550772677876681  0.0260388046460195  0.6580830320226675   T   T   T
  0.8794465573664122  0.0357056582948979  0.1696011253359774   T   T   T
  0.8658325300022924  0.0267292402213807  0.6697677395061831   T   T   T
  0.8550806557577506  0.0081547933770446  0.9021327313575512   T   T   T
  0.4554359899366865  0.1995659806475111  0.1690220406618872   T   T   T
  0.4327200021879853  0.2090576294630315  0.6750281911411894   T   T   T
  0.4346972499613534  0.1923286303644486  0.9192470251986395   T   T   T
  0.9377064278472876  0.2019856593335743  0.1716367914670692   T   T   T
  0.9330720914743583  0.2109721710527860  0.6640337023685599   T   T   T
  0.9419200433539119  0.2047618437009378  0.9151290191554362   T   T   T
  0.3987229308181948  0.2929279517891335  0.5685811628423371   T   T   T
  0.4350960729092115  0.4080433461369602  0.5437263421640344   T   T   T
  0.6195762789866193  0.3391457565562103  0.5799233351967650   T   T   T
 
  0.32869607E-01 -0.26067846E-01 -0.37805837E-01
  0.13360840E-01 -0.24798055E-01 -0.67055569E-03
  0.33805441E-02  0.16260192E-01 -0.12751341E-01
  0.16796625E-01 -0.82586658E-02 -0.28153652E-02
  0.38244365E-02 -0.17960646E-01 -0.47372345E-02
 -0.30875530E-02 -0.99315864E-02 -0.71277264E-02
  0.47777863E-02  0.17869812E-01  0.16218075E-01
  0.29376208E-02 -0.34531452E-01  0.27611842E-02
 -0.19546879E-01  0.11555099E-01  0.26974697E-01
 -0.64831287E-02 -0.18788902E-03  0.43756101E-01
  0.14767290E-01  0.16197842E-01 -0.93266065E-02
  0.24064515E-03  0.13486083E-01  0.28660033E-01
 -0.10853004E-01  0.11233150E-01  0.31276091E-01
 -0.38957156E-01  0.60495546E-02  0.10308960E-01
  0.95681676E-03  0.21556293E-02 -0.77669390E-02
  0.42160032E-03  0.14909551E-01  0.36186702E-01
 -0.11025750E-01  0.28954963E-02  0.12477313E-01
  0.23284462E-01 -0.64991825E-02  0.19680842E-01
  0.20200870E-01  0.12118273E-01 -0.88397982E-03
 -0.64483017E-02  0.30852812E-02  0.16170756E-01
 -0.15912150E-02 -0.15412044E-01  0.99902530E-02
  0.51696687E-02 -0.17111418E-01  0.24502656E-02
 -0.17509628E-01  0.63449927E-02 -0.27884422E-02
  0.16854668E-01 -0.30596949E-01  0.84844438E-02
 -0.87973541E-02 -0.29359361E-02 -0.29858862E-02
 -0.14148540E-01 -0.21941679E-02  0.67473751E-02
 -0.24012660E-01 -0.18363254E-01  0.13094783E-01
  0.48264157E-03 -0.13333857E-01 -0.81054374E-02
 -0.85606676E-02 -0.39843650E-02 -0.24464194E-01
 -0.33004403E-01 -0.98129113E-02  0.36154638E-01
  0.40140616E-02 -0.88839965E-02 -0.77569376E-02
 -0.19808345E-01 -0.10022037E-01 -0.12463496E-01
 -0.33871393E-01 -0.28208361E-02  0.21880109E-01
 -0.84152082E-02  0.11490764E-01  0.10173034E-01
 -0.68362688E-02  0.14734489E-01  0.24973472E-01
  0.42842156E-01  0.39095662E-01  0.16624485E-01
  0.99963218E-02  0.65379494E-02 -0.29119108E-01
 -0.12074066E-01  0.10857773E-01  0.15111360E-01
  0.10414055E-01  0.41747089E-01 -0.12556862E-01
  0.25502504E-01 -0.16433582E-01 -0.14337650E-02
 -0.28746293E-01 -0.29939148E-01 -0.37469874E-01
  0.16425436E-01 -0.23707257E-02  0.24593395E-01
 -0.11485077E-01 -0.51679532E-02 -0.27442784E-01
  0.16627680E-01 -0.10513739E-01 -0.20063597E-01
 -0.56025025E-02  0.30580954E-02 -0.73076113E-02
  0.52940865E-02 -0.38111885E-02  0.30857649E-01
 -0.18139300E-01 -0.23864000E-01  0.94803778E-02
  0.16548347E-02  0.15616875E-01  0.33927726E-01
  0.26837774E-02 -0.20863238E-01  0.50565620E-01
  0.16547209E-01 -0.57095943E-02 -0.15855775E-01
 -0.23744919E-01  0.30427222E-01 -0.78811785E-02
  0.12458795E-01 -0.11017517E-02  0.15213504E-03
 -0.32992375E-01 -0.11741205E-01 -0.21178131E-01
 -0.25709722E-01  0.10851298E-01 -0.15063016E-01
 -0.20976651E-01  0.29124150E-02  0.16264628E-01
  0.10340966E-01  0.10531295E-01  0.16072169E-01
  0.16408654E-01 -0.52793334E-02  0.12134748E-01
 -0.12312217E-01  0.53590017E-02  0.16578503E-01
  0.18034088E-01  0.27029862E-02 -0.16926725E-01
  0.67330151E-02 -0.75924448E-02  0.24121776E-01
  0.20942462E-01  0.18709282E-01  0.90516436E-02
  0.29510287E-02 -0.65079674E-03  0.16009157E-01
 -0.10906970E-01  0.95983013E-02 -0.22235085E-01
  0.20872613E-01  0.14680988E-01 -0.54045072E-02
  0.12793894E-02  0.16296604E-01 -0.49548282E-02
 -0.20107063E-02  0.12510259E-02  0.78209670E-02
 -0.26343217E-01  0.10566932E-01  0.15418846E-01
  0.70432259E-02 -0.69019175E-02  0.43902747E-02
  0.86564082E-02 -0.12611511E-01 -0.44864972E-02
  0.56605397E-03 -0.12392649E-01  0.59043017E-02
 -0.49571590E-02  0.27654869E-01  0.15992112E-01
  0.13509734E-01  0.60714228E-02 -0.63554252E-03
 -0.18598631E-01 -0.10280840E-01  0.26272441E-03
 -0.35600034E-02 -0.85559132E-02 -0.13286217E-01
  0.76682574E-03  0.41222431E-01 -0.23935251E-01
  0.13308488E-01  0.82520806E-02 -0.40907029E-02
  0.72295224E-02 -0.25385427E-02  0.41033525E-03
  0.87174589E-02  0.32877117E-01 -0.18544304E-01
 -0.22673016E-01 -0.10516184E-01 -0.25998776E-01
  0.21553576E-01  0.18828148E-01  0.13902745E-01
 -0.19106955E-01 -0.34041861E-02 -0.30824110E-01
  0.70585349E-02  0.12310435E-01 -0.98061896E-02
 -0.16810788E-01  0.80613270E-02  0.51874787E-02
  0.94236457E-02  0.58484586E-02 -0.71245846E-02
  0.10864778E-01  0.86106375E-02  0.15381714E-02
 -0.63741286E-02  0.24476595E-01 -0.11696874E-01
 -0.30777678E-02  0.26383734E-01  0.35191695E-02
  0.14810810E-01  0.19708294E-01 -0.26748751E-01
 -0.10150153E-01  0.87620363E-02  0.11931141E-01
  0.22811047E-01 -0.88550239E-02  0.84105611E-03
 -0.13018825E-03  0.37007647E-02  0.87029776E-02
  0.24391005E-01 -0.47081590E-01  0.75255380E-02
 -0.35073400E-01  0.15500309E-01 -0.12520579E-01
 -0.15027294E-01  0.15005121E-01 -0.17406005E-01
 -0.25723332E-01  0.25126017E-01  0.95975717E-02
  0.26107079E-01 -0.60838719E-02  0.13312585E-01
  0.11757994E-01 -0.28537603E-01 -0.26910096E-01
  0.46252856E-02 -0.89056089E-02  0.40869754E-02
  0.60091666E-02  0.27194852E-02 -0.12729795E-01
  0.36323431E-02 -0.10596906E-01 -0.22695778E-02
 -0.86087168E-02 -0.45172101E-02 -0.18682102E-01
  0.25671820E-01  0.14199082E-01 -0.82579815E-03
  0.89002978E-02 -0.96024478E-02  0.66238589E-02
 -0.45950881E-02 -0.11875858E-02 -0.48720040E-03
  0.68277508E-03 -0.60021550E-02 -0.78935563E-02
  0.34137596E-02  0.50817159E-02 -0.11949461E-01
  0.19736998E-01  0.93458903E-02 -0.11690625E-01
  0.31343840E-01  0.27385343E-01  0.13431995E-01
  0.77349390E-02 -0.93605489E-02  0.23466328E-01
 -0.18367625E-01  0.88914202E-03 -0.46441778E-02
 -0.19108472E-02 -0.21034982E-01 -0.45307432E-02
  0.11354837E-01 -0.98376825E-02 -0.23173818E-01
  0.11405836E-01 -0.10178258E-01  0.22602054E-01
  0.22222434E-02 -0.87272961E-03  0.62492662E-02
 -0.13475447E-01 -0.11647616E-01 -0.15409300E-01
 -0.33642377E-02  0.80502539E-02  0.38112731E-01
 -0.74621043E-02 -0.12656610E-01 -0.40195220E-01
  0.12885589E-01 -0.13652162E-01  0.15828698E-01
  0.91021493E-02  0.12713919E-01 -0.54750650E-02
  0.20828810E-01 -0.24726103E-01  0.67698816E-02
  0.11657627E-01 -0.19600470E-01  0.38003628E-02
  0.10897814E-02  0.90282902E-02 -0.30902299E-01
  0.12880478E-02 -0.49390462E-02 -0.86372948E-02
 -0.15586842E-01  0.10851748E-01 -0.78836533E-02
 -0.34026710E-01 -0.10374280E-01  0.30971133E-02
  0.46628914E-02  0.20094731E-01 -0.14741237E-01
 -0.56605169E-02 -0.27311962E-01 -0.71949522E-03
  0.16376738E-01 -0.21178088E-01 -0.20362639E-02
  0.37357571E-01  0.14910026E-01 -0.16877905E-01
  0.27196976E-01  0.33788549E-02 -0.18255153E-01
 -0.22853889E-02  0.24986765E-01  0.28917517E-02
  0.48838213E-01  0.71759220E-01 -0.74734675E-02
  0.20612247E-01  0.52668246E-01 -0.53401765E-03
  0.94050767E-01  0.21553000E-01  0.12884346E+00
  0.11692024E-01  0.21224619E-01 -0.59002406E-01
  0.17621949E-01 -0.79546300E-01  0.36797774E-01
  0.14307074E+00  0.69029101E-01  0.11203162E+00
  0.87012133E-01  0.15287477E+00  0.23173594E-01
  0.12518831E-01 -0.68063706E-01  0.29815866E-01
 -0.25582712E-01 -0.45566658E-01  0.10111128E+00
 -0.11754783E-01 -0.39759767E-01  0.11391904E-01
  0.54986815E-01 -0.14665148E-01  0.42684661E-01
 -0.30045680E-02  0.69998248E-01 -0.22095742E-01
 -0.31627748E-01 -0.82329259E-01 -0.33390285E-01
 -0.58535123E-01 -0.11671542E-01  0.45846681E-02
  0.18665972E+00 -0.31643739E-01 -0.36801985E-01
  0.39218333E-01 -0.13917691E+00 -0.20225506E+00
  0.12092681E+00 -0.82056045E-02 -0.35101034E-01
  0.92450630E-01 -0.15557923E-02 -0.29915385E-01
  0.36797550E-01 -0.15175501E+00  0.15577283E-01
  0.10196201E+00  0.85316491E-01  0.18154275E+00
 -0.76728421E-01 -0.64939567E-01  0.14647220E-01
  0.74702686E-01 -0.28225167E-01 -0.58752281E-01
  0.22735072E-01  0.26448465E-01 -0.10390093E+00
 -0.34913489E+00  0.22903899E+00  0.12340776E+00
 -0.10555825E+00  0.18283574E-01  0.92419838E-01
  0.90044500E-01 -0.52239883E-01  0.19606898E-01
 -0.14405727E+00  0.10717664E+00 -0.23629236E-01
  0.87095245E-01  0.49467137E-01 -0.84549711E-02
  0.25259191E-01 -0.16186877E-01  0.48256204E-01
 -0.51387448E-01  0.46508765E-01  0.82754834E-01
 -0.34314652E-01 -0.11256662E+00 -0.71373891E-01
  0.32407440E-02 -0.18407044E-01  0.24184606E-01
 -0.83063181E-02  0.35289455E-02  0.86510230E-02
  0.46299761E-02  0.17477326E-01 -0.91112897E-02
 -0.74338780E-02 -0.12654449E-01 -0.77526896E-02
 -0.33560466E-01  0.22417150E-01  0.11030433E-01
  0.19779553E-01 -0.19841689E-01 -0.91326189E-02
  0.61449760E-02 -0.29508532E-02 -0.11506923E-01
  0.44687706E-01 -0.59906617E-02 -0.30501648E-02
 -0.70097471E-02 -0.15019059E-02  0.11911767E-01
 -0.50743774E-02 -0.10615883E-01 -0.42597173E-02
  0.69867811E-02 -0.12363410E-01 -0.11518056E-01
 -0.14460448E-01 -0.73640851E-02  0.39783503E-01
  0.10262843E-02  0.42780899E-02  0.43355825E-02
 -0.97960031E-02 -0.30470651E-02 -0.11384860E-01
  0.28959993E-01 -0.20542223E-01 -0.15725355E-01
 -0.33823802E-01  0.32253437E-01  0.54634339E-03
  0.25032042E-01 -0.14975224E-02 -0.16474683E-01
 -0.14953223E-01 -0.14478607E-01  0.22683861E-01
 -0.37033829E-01  0.18955157E-02 -0.43401447E-01
 -0.93592436E-02  0.54558187E-02 -0.32089429E-02
  0.53127610E-01  0.43915432E-01 -0.12931688E-01
 -0.14298411E-01 -0.35918405E-01 -0.86319559E-02
  0.19222121E-01 -0.10346505E-01 -0.72529528E-02
 -0.87426469E-03  0.15099820E-01 -0.92689384E-02
 -0.27066119E-01 -0.24821323E-01  0.16759336E-01
 -0.16005821E-01 -0.13496339E-01 -0.22462930E-02
 -0.31851320E-01  0.73807533E-02 -0.35085089E-01
 -0.40862104E-01 -0.41906301E-01 -0.83697035E-02
 -0.33197669E-01 -0.20323064E-02  0.14141661E-02
 -0.26352184E-02 -0.15517847E-01 -0.14712076E-01
  0.39168290E-01 -0.33104400E-02  0.14658934E-01
  0.56749647E-02 -0.48042183E-02  0.13543387E-01
 -0.45872718E-02 -0.39379692E-01 -0.30973929E-01
  0.21514279E-01  0.64174507E-02  0.10246955E-01
 -0.18452850E-01 -0.32266121E-02  0.15535983E-01
  0.12335343E-01 -0.35059915E-02  0.27077197E-01
 -0.13653374E-01  0.76700856E-03  0.53377674E-02
 -0.16702882E-01  0.39540116E-02  0.39967866E-02
  0.15019307E-01 -0.87817340E-02  0.43326487E-02
 -0.22948114E-01  0.34950291E-01 -0.18663095E-01
  0.15866911E-01  0.34938519E-01 -0.12618390E-01
 -0.49291857E-02  0.18802428E-01  0.20992874E-02
 
           1
   2.00000000000000     
 -0.44457984E+00 -0.55190226E-01 -0.80960207E-01 -0.37650462E+00
  0.11261834E+00  0.11223724E+00  0.29089162E-01
  0.92404301E-01  0.12177549E+00  0.28961894E+00
  0.10112000E+00  0.12623421E+00  0.53749656E+00
  0.11636867E+00  0.12599804E+00  0.78817293E+00
  0.60057757E+00  0.12062164E+00  0.30156600E-01
  0.59563215E+00  0.12524280E+00  0.29037783E+00
  0.60755446E+00  0.13752661E+00  0.53777807E+00
  0.60025917E+00  0.10515167E+00  0.78713987E+00
  0.93746530E-01  0.95318611E-01  0.16769517E+00
  0.91431907E-01  0.11299920E+00  0.41038463E+00
  0.94940981E-01  0.11343821E+00  0.66363266E+00
  0.99532644E-01  0.10787438E+00  0.90862310E+00
  0.59917911E+00  0.11027893E+00  0.15664121E+00
  0.59597437E+00  0.11244263E+00  0.42043202E+00
  0.59516150E+00  0.10618142E+00  0.65189876E+00
  0.60552432E+00  0.13313404E+00  0.92373035E+00
  0.34777111E+00  0.11766066E+00  0.44703487E-01
  0.34938510E+00  0.11501132E+00  0.28821999E+00
  0.34632981E+00  0.15056709E+00  0.54872872E+00
  0.35558434E+00  0.12935602E+00  0.78750596E+00
  0.86210571E+00  0.10879834E+00  0.28325397E-01
  0.84610803E+00  0.12030504E+00  0.28455716E+00
  0.85030891E+00  0.12240080E+00  0.53347730E+00
  0.85756896E+00  0.10101249E+00  0.78933056E+00
  0.34263433E+00  0.10315151E+00  0.15692664E+00
  0.34295931E+00  0.11001236E+00  0.41931688E+00
  0.34297068E+00  0.96675696E-01  0.66189059E+00
  0.34551416E+00  0.11837370E+00  0.91886092E+00
  0.84837498E+00  0.10190983E+00  0.15545150E+00
  0.83331674E+00  0.11254060E+00  0.40657408E+00
  0.85300749E+00  0.10125394E+00  0.66270323E+00
  0.84819688E+00  0.10742897E+00  0.91128835E+00
  0.18443202E+00  0.96374828E-01  0.35437693E-01
  0.17383462E+00  0.10781571E+00  0.28887551E+00
  0.17809949E+00  0.11873558E+00  0.53869339E+00
  0.19997538E+00  0.12775167E+00  0.78816890E+00
  0.68294441E+00  0.11575737E+00  0.33051872E-01
  0.67316920E+00  0.11060977E+00  0.29088688E+00
  0.68221829E+00  0.14043250E+00  0.54116326E+00
  0.68837056E+00  0.95835297E-01  0.78893805E+00
  0.16864959E+00  0.12618933E+00  0.16325375E+00
  0.19417874E+00  0.11544132E+00  0.41568010E+00
  0.18298704E+00  0.13526540E+00  0.65363202E+00
  0.19011738E+00  0.11282382E+00  0.91270798E+00
  0.67967925E+00  0.11052606E+00  0.16445842E+00
  0.68183110E+00  0.12651101E+00  0.42976014E+00
  0.67997682E+00  0.10414501E+00  0.66167020E+00
  0.69461861E+00  0.14292511E+00  0.91652297E+00
  0.42770706E+00  0.93503733E-01  0.55126338E-01
  0.44113499E+00  0.11347098E+00  0.29015577E+00
  0.42979486E+00  0.11804344E+00  0.53595425E+00
  0.44398639E+00  0.10758538E+00  0.78943944E+00
  0.94385044E+00  0.10399284E+00  0.24135577E-01
  0.92356599E+00  0.11501504E+00  0.28802979E+00
  0.92481275E+00  0.11368527E+00  0.53415329E+00
  0.93255909E+00  0.12391577E+00  0.78268992E+00
  0.43456197E+00  0.12333013E+00  0.16796150E+00
  0.43623177E+00  0.12021323E+00  0.42086669E+00
  0.44015197E+00  0.12446747E+00  0.65467868E+00
  0.42997850E+00  0.12229241E+00  0.92259967E+00
  0.92843458E+00  0.13866945E+00  0.14313639E+00
  0.92557049E+00  0.12356942E+00  0.42568576E+00
  0.93993078E+00  0.12696317E+00  0.65670560E+00
  0.94958388E+00  0.12868587E+00  0.91537457E+00
  0.21937677E+00  0.10246935E+00  0.10469863E+00
  0.22811791E+00  0.10648316E+00  0.35461302E+00
  0.21963080E+00  0.98092034E-01  0.59536985E+00
  0.22972769E+00  0.10635471E+00  0.84676678E+00
  0.73095403E+00  0.10331244E+00  0.10044163E+00
  0.71257282E+00  0.10030487E+00  0.35626313E+00
  0.72771366E+00  0.11229210E+00  0.60550663E+00
  0.73068670E+00  0.11528562E+00  0.84795615E+00
  0.21341688E+00  0.91184840E-01  0.23066641E+00
  0.21342476E+00  0.99178964E-01  0.47785233E+00
  0.24092479E+00  0.13122654E+00  0.72031861E+00
  0.23282261E+00  0.11501416E+00  0.96713719E+00
  0.72759620E+00  0.10510418E+00  0.22214934E+00
  0.72605720E+00  0.14118038E+00  0.48402840E+00
  0.71924089E+00  0.97764222E-01  0.71915948E+00
  0.72566842E+00  0.11339574E+00  0.97787609E+00
  0.47970447E+00  0.11790744E+00  0.99206841E-01
  0.47637892E+00  0.12457863E+00  0.36161671E+00
  0.47115661E+00  0.11472838E+00  0.59123874E+00
  0.47739265E+00  0.11509582E+00  0.84888782E+00
  0.98094147E+00  0.11713684E+00  0.89961226E-01
  0.96607728E+00  0.13639293E+00  0.35656160E+00
  0.97470715E+00  0.12941865E+00  0.59578959E+00
  0.98120168E+00  0.12295818E+00  0.84516372E+00
  0.47442819E+00  0.10502306E+00  0.22593802E+00
  0.47655500E+00  0.11917755E+00  0.47096611E+00
  0.48040074E+00  0.11886777E+00  0.72806440E+00
  0.46943038E+00  0.86399278E-01  0.97585490E+00
  0.96677553E+00  0.11414647E+00  0.21942593E+00
  0.97271296E+00  0.11849261E+00  0.47249875E+00