C H N O S                               
   1.00000000000000     
    20.0000000000000000    0.0000000000000000    0.0000000000000000
     0.0000000000000000   21.3509999999999991    0.0000000000000000
     0.0000000000000000    0.0000000000000000   19.7231999999999985
   C    H    N    O    S 
     3     7     1     2     1
Selective dynamics
Direct
  0.2392584956550010  0.5035355909329979  0.5117243250319987   F   F   F
  0.2642386935373224  0.5677174739037412  0.5307801038722388   T   T   T
  0.2487500456463039  0.4931713735105063  0.4337314409807078   T   T   T
  0.1814675630178684  0.5071320461536573  0.5157283516873576   T   T   T
  0.2707023809196016  0.5657016703593314  0.5862816782696214   T   T   T
  0.3138157053224049  0.5764431451672749  0.5093069228432014   T   T   T
  0.2617368298110847  0.4132676093761134  0.5298215284041845   T   T   T
  0.2526684688797758  0.4567846196578174  0.5978715226650166   T   T   T
  0.2085048063599189  0.6197170375313377  0.4446479486396342   T   T   T
  0.2431747976861089  0.4265800716183392  0.3684670443273461   T   T   T
  0.2705698232567073  0.4559074577400750  0.5507120912381467   T   T   T
  0.2364483940962998  0.4307271835485835  0.4168257343229129   T   T   T
  0.2660453625332266  0.5335643037412368  0.3931199991955836   T   T   T
  0.2038094709858171  0.6297788153444159  0.5127586959892199   T   T   T
 
  0.00000000E+00  0.00000000E+00  0.00000000E+00
  0.00000000E+00  0.00000000E+00  0.00000000E+00
  0.00000000E+00  0.00000000E+00  0.00000000E+00
  0.00000000E+00  0.00000000E+00  0.00000000E+00
  0.00000000E+00  0.00000000E+00  0.00000000E+00
  0.00000000E+00  0.00000000E+00  0.00000000E+00
  0.00000000E+00  0.00000000E+00  0.00000000E+00
  0.00000000E+00  0.00000000E+00  0.00000000E+00
  0.00000000E+00  0.00000000E+00  0.00000000E+00
  0.00000000E+00  0.00000000E+00  0.00000000E+00
  0.00000000E+00  0.00000000E+00  0.00000000E+00
  0.00000000E+00  0.00000000E+00  0.00000000E+00
  0.00000000E+00  0.00000000E+00  0.00000000E+00
  0.00000000E+00  0.00000000E+00  0.00000000E+00
